 vasp.6.4.2 20Jul23 (build Nov 06 2023 14:18:49) gamma-only

 executed on             LinuxIFC date 2024.10.05  19:41:56

 INCAR:
   NCORE = 24
   LREAL = Auto
   ISTART = 0
   ICHARG = 2
   LORBIT = 11
   ENCUT = 500
   EDIFF = 1E-4
   NELM = 60
   NELMIN = 4
   IBRION = 1
   NSW = 900
   POTIM = 0.3
   ISIF = 2
   EDIFFG = -1E-2
   ADDGRID = .TRUE.
   ISMEAR = -2
   FERWE = 575*1 0 1 307*0
   FERDO = 576*1 308*0
   IVDW = 11
   VDW_S8 = 0.109
   VDW_SR = 1.129
   ISPIN = 2
   NUPDOWN = 0
   GGA = PE
   LHFCALC = .TRUE.
   AEXX = 0.32
   HFSCREEN = 0.2
   ALGO = Normal
   TIME = 0.4
   PRECFOCK = Fast
   NBANDS = 884

 POTCAR:    PAW_PBE Al 04Jan2001
 POTCAR:    PAW_PBE N 08Apr2002
 POTCAR:    PAW_PBE B 06Sep2000
|           W    W    AA    RRRRR   N    N  II  N    N   GGGG   !!!           |
|           W    W   A  A   R    R  NN   N  II  NN   N  G    G  !!!           |
|           W    W  A    A  R    R  N N  N  II  N N  N  G       !!!           |
|           W WW W  AAAAAA  RRRRR   N  N N  II  N  N N  G  GGG   !            |
|           WW  WW  A    A  R   R   N   NN  II  N   NN  G    G                |
|           W    W  A    A  R    R  N    N  II  N    N   GGGG   !!!           |
|     You use a magnetic or noncollinear calculation, but did not specify     |
|     the initial magnetic moment with the MAGMOM tag. Note that a            |
|     default of 0 will be used for all atoms. This ferromagnetic setup       |
|     may break the symmetry of the crystal, in particular it may rule        |
|     out finding an antiferromagnetic solution. Thence, we recommend         |
|     setting the initial magnetic moment manually or verifying carefully     |
|     that this magnetic setup is desired.                                    |

   TITEL  = PAW_PBE Al 04Jan2001
   POMASS =   26.981; ZVAL   =    3.000    mass and valenz
   ENMAX  =  240.300; ENMIN  =  180.225 eV

   TITEL  = PAW_PBE N 08Apr2002
   POMASS =   14.001; ZVAL   =    5.000    mass and valenz
   ENMAX  =  400.000; ENMIN  =  300.000 eV

   TITEL  = PAW_PBE B 06Sep2000
   POMASS =   10.811; ZVAL   =    3.000    mass and valenz
   ENMAX  =  318.614; ENMIN  =  238.960 eV

 Optimization of the real space projectors (new method)

 maximal supplied QI-value         = 19.84
 optimisation between [QCUT,QGAM] = [ 11.31, 22.82] = [ 35.82,145.81] Ry
 Optimized for a Real-space Cutoff    1.07 Angstroem

   l    n(q)    QCUT    max X(q) W(low)/X(q) W(high)/X(q)  e(spline)
   0      7    11.310   176.870    0.43E-03    0.33E-03    0.78E-07
   0      7    11.310   105.762    0.41E-03    0.33E-03    0.76E-07
   1      7    11.310    55.370    0.40E-03    0.29E-03    0.65E-07
   1      7    11.310    20.208    0.38E-03    0.25E-03    0.60E-07
 Optimization of the real space projectors (new method)

[...]

   l    n(q)    QCUT    max X(q) W(low)/X(q) W(high)/X(q)  e(spline)
   0      9    11.310    79.467    0.75E-04    0.16E-03    0.36E-06
   0      9    11.310    66.151    0.74E-04    0.16E-03    0.36E-06
   1      8    11.310    17.416    0.35E-03    0.12E-03    0.95E-06
   1      8    11.310    12.382    0.37E-03    0.13E-03    0.98E-06
 Optimization of the real space projectors (new method)

 maximal supplied QI-value         = 22.11
 optimisation between [QCUT,QGAM] = [ 11.28, 22.77] = [ 35.61,145.23] Ry
 Optimized for a Real-space Cutoff    1.16 Angstroem

   l    n(q)    QCUT    max X(q) W(low)/X(q) W(high)/X(q)  e(spline)
   0      8    11.276    53.033    0.48E-03    0.56E-03    0.11E-06
   0      8    11.276    34.740    0.48E-03    0.55E-03    0.11E-06
   1      7    11.276    30.949    0.26E-03    0.19E-04    0.19E-06
   1      7    11.276    19.518    0.24E-03    0.14E-04    0.18E-06
  PAW_PBE Al 04Jan2001                  :
  PAW_PBE N 08Apr2002                   :
  PAW_PBE B 06Sep2000                   :

 POSCAR: Species order: X N B
  positions in direct lattice
  velocities in cartesian coordinates
 exchange correlation table for  LEXCH =        8
   RHO(1)=    0.500       N(1)  =     2000
   RHO(2)=  100.500       N(2)  =     4000

 VTST: version 4.1, (05/19/21)

 CHAIN: initializing optimizer

 OPT: Using VASP QUASI-newton optimizer
 CHAIN: Read ICHAIN            0

 POSCAR: Species order: X N B
  positions in direct lattice
  velocities in cartesian coordinates

 ion  position               nearest neighbor table
   1  0.444  0.389  0.375-  87 1.68 100 1.68 138 1.68 182 2.59 147 2.59 159 2.59 195 2.59 207 2.59
                           209 2.59
   2  0.111  0.056  0.125- 253 1.44 276 1.44 217 1.44
   3  0.611  0.556  0.125- 281 1.44 218 1.44 255 1.44
   4  0.444  0.056  0.125- 219 1.44 278 1.44 256 1.44
   5  0.944  0.556  0.125- 220 1.44 251 1.44 283 1.44
   6  0.778  0.056  0.125- 221 1.44 258 1.44 282 1.44
   7  0.111  0.722  0.625- 284 1.44 259 1.44 222 1.44
   8  0.444  0.722  0.625- 257 1.44 223 1.44 262 1.44
   9  0.278  0.222  0.625- 261 1.44 224 1.44 285 1.44
  10  0.778  0.722  0.625- 286 1.44 263 1.44 225 1.44
  11  0.611  0.222  0.625- 226 1.44 264 1.44 287 1.44
  12  0.944  0.222  0.625- 260 1.44 227 1.44 288 1.44
  13  0.278  0.722  0.125- 280 1.44 228 1.44 266 1.44
  14  0.111  0.222  0.125- 267 1.44 229 1.44 217 1.44
  15  0.444  0.222  0.125- 230 1.44 269 1.44 219 1.44
  16  0.611  0.722  0.125- 218 1.44 268 1.44 231 1.44
  17  0.944  0.722  0.125- 220 1.44 265 1.44 232 1.44
  18  0.778  0.222  0.125- 233 1.44 270 1.44 221 1.44
  19  0.111  0.889  0.625- 272 1.44 222 1.44 234 1.44
  20  0.444  0.889  0.625- 223 1.44 235 1.44 273 1.44
  21  0.278  0.389  0.625- 274 1.44 224 1.44 236 1.44
  22  0.611  0.389  0.625- 237 1.44 226 1.44 277 1.44
  23  0.778  0.889  0.625- 225 1.44 275 1.44 238 1.44
  24  0.944  0.389  0.625- 239 1.44 271 1.44 227 1.44
  25  0.111  0.389  0.125- 279 1.44 240 1.44 229 1.44
  26  0.278  0.889  0.125- 241 1.44 228 1.44 278 1.44
  27  0.611  0.889  0.125- 231 1.44 242 1.44 282 1.44
  28  0.444  0.389  0.130- 230 1.44 243 1.44 281 1.44
  29  0.944  0.889  0.125- 232 1.44 276 1.44 244 1.44
  30  0.778  0.389  0.125- 245 1.44 283 1.44 233 1.44
  31  0.278  0.556  0.625- 257 1.44 236 1.44 246 1.44
  32  0.111  0.056  0.625- 285 1.44 234 1.44 247 1.44
  33  0.611  0.556  0.625- 237 1.44 248 1.44 286 1.44
  34  0.444  0.056  0.625- 249 1.44 235 1.44 287 1.44
  35  0.944  0.556  0.625- 250 1.44 284 1.44 239 1.44
  36  0.111  0.556  0.125- 280 1.44 251 1.44 240 1.44
  37  0.778  0.056  0.625- 252 1.44 288 1.44 238 1.44
  38  0.278  0.056  0.125- 219 1.44 253 1.44 241 1.44
  39  0.444  0.556  0.125- 243 1.44 218 1.44 254 1.44
  40  0.778  0.556  0.125- 255 1.44 245 1.44 220 1.44
  41  0.611  0.056  0.125- 256 1.44 242 1.44 221 1.44
  42  0.444  0.556  0.625- 274 1.44 248 1.44 257 1.44
  43  0.944  0.056  0.125- 217 1.44 244 1.44 258 1.44
  44  0.278  0.722  0.625- 246 1.44 259 1.44 223 1.44
  45  0.111  0.222  0.625- 224 1.44 260 1.44 247 1.44
  46  0.444  0.222  0.625- 261 1.44 226 1.44 249 1.44
  47  0.611  0.722  0.625- 248 1.44 225 1.44 262 1.44
  48  0.944  0.722  0.625- 250 1.44 222 1.44 263 1.44
  49  0.778  0.222  0.625- 264 1.44 227 1.44 252 1.44
  50  0.111  0.722  0.125- 251 1.44 228 1.44 265 1.44
  51  0.444  0.722  0.125- 254 1.44 266 1.44 231 1.44
  52  0.278  0.222  0.125- 230 1.44 267 1.44 253 1.44
  53  0.778  0.722  0.125- 255 1.44 232 1.44 268 1.44
  54  0.611  0.222  0.125- 269 1.44 233 1.44 256 1.44
  55  0.944  0.222  0.125- 229 1.44 270 1.44 258 1.44
  56  0.111  0.389  0.625- 236 1.44 271 1.44 260 1.44
  57  0.278  0.889  0.625- 272 1.44 259 1.44 235 1.44
  58  0.611  0.889  0.625- 262 1.44 273 1.44 238 1.44
  59  0.444  0.389  0.620- 261 1.44 274 1.44 237 1.44
  60  0.944  0.889  0.625- 263 1.44 234 1.44 275 1.44
  61  0.111  0.889  0.125- 241 1.44 265 1.44 276 1.44
[...]
 274  0.389  0.445  0.623-  42 1.44  21 1.44  59 1.44
 275  0.889  0.944  0.625-  73 1.44  23 1.44  60 1.44
 276  0.056  0.944  0.125-  29 1.44  61 1.44   2 1.44
 277  0.722  0.444  0.625-  62 1.44  71 1.44  22 1.44
 278  0.389  0.944  0.125-  63 1.44  26 1.44   4 1.44
 279  0.222  0.444  0.125-  25 1.44  65 1.44  64 1.44
 280  0.222  0.611  0.125-  36 1.44  13 1.44  65 1.44
 281  0.556  0.445  0.127-  66 1.44   3 1.44  28 1.44
 282  0.722  0.944  0.125-   6 1.44  67 1.44  27 1.44
 283  0.889  0.444  0.125-  68 1.44   5 1.44  30 1.44
 284  0.056  0.611  0.625-   7 1.44  35 1.44  69 1.44
 285  0.222  0.111  0.625-  32 1.44  70 1.44   9 1.44
 286  0.722  0.611  0.625-  10 1.44  71 1.44  33 1.44
 287  0.556  0.111  0.625-  72 1.44  34 1.44  11 1.44
 288  0.889  0.111  0.625-  37 1.44  73 1.44  12 1.44

  LATTYP: Found a hexagonal cell.
 ALAT       =    14.9363141462
 C/A-ratio  =     0.8932107448

  Lattice vectors:

 A1 = (  14.9363141462,   0.0000000000,   0.0000000000)
 A2 = (  -7.4681570731,  12.9352274895,  -0.0000000000)
 A3 = (   0.0000000000,   0.0000000000,  13.3412762838)

Analysis of symmetry for initial positions (statically):
 Subroutine PRICEL returns:
 Original cell was already a primitive cell.

 Routine SETGRP: Setting up the symmetry group for a
 hexagonal supercell.

 Subroutine GETGRP returns: Found 12 space group operations
 (whereof  1 operations were pure point group operations)
 out of a pool of 24 trial point group operations.

The static configuration has the point symmetry C_1 .
 The point group associated with its full space group is D_3h.

Analysis of symmetry for dynamics (positions and initial velocities):
 Subroutine PRICEL returns:
 Original cell was already a primitive cell.

[...]

The dynamic configuration has the point symmetry C_1 .
 The point group associated with its full space group is D_3h.

Analysis of structural, dynamic, and magnetic symmetry:
 Subroutine PRICEL returns:
 Original cell was already a primitive cell.

 Routine SETGRP: Setting up the symmetry group for a
 hexagonal supercell.

 Subroutine GETGRP returns: Found 12 space group operations
 (whereof  1 operations were pure point group operations)
 out of a pool of 24 trial point group operations.

The overall configuration has the point symmetry C_1 .
 The point group associated with its full space group is D_3h.

 Subroutine INISYM returns: Found 12 space group operations
 (whereof  1 operations are pure point group operations),
 and found     1 'primitive' translations

                                     Primitive cell

  volume of cell :    2577.5962

  direct lattice vectors                    reciprocal lattice vectors
    14.936314146  0.000000000  0.000000000     0.066950922  0.038654133 -0.000000000
    -7.468157073 12.935227490 -0.000000000     0.000000000  0.077308265 -0.000000000
     0.000000000  0.000000000 13.341276284     0.000000000  0.000000000  0.074955348

  length of vectors
    14.936314146 14.936314146 13.341276284     0.077308265  0.077308265  0.074955348

  position of ions in fractional coordinates (direct lattice)
     0.444444444  0.388888889  0.375000000
     0.111095398  0.055540084  0.124780782
     0.611133087  0.555581801  0.125233037
     0.444444686  0.055540084  0.124780782
     0.944449730  0.555556428  0.125059717
     0.777777778  0.055555556  0.124790353
     0.111111111  0.722222222  0.624916425
     0.444444686  0.722237935  0.625219218
[...]
   -.346E+01 0.201E+01 -.131E+01   0.347E+01 -.200E+01 0.129E+01   -.161E-01 0.927E-02 0.158E-01   0.288E-03 0.281E-03 -.428E-03
   -.809E+00 -.288E+01 -.128E+01   0.748E+00 0.288E+01 0.131E+01   0.185E-01 0.107E-01 -.273E-01   0.165E-03 -.412E-03 0.170E-02
   0.356E+01 0.457E+01 0.131E+01   -.353E+01 -.444E+01 -.118E+01   -.389E-01 -.924E-01 -.114E+00   0.117E-03 0.300E-03 -.625E-02
   0.732E+00 -.289E+01 -.128E+01   -.748E+00 0.288E+01 0.131E+01   -.185E-01 0.107E-01 -.273E-01   0.159E-04 -.436E-03 0.168E-02
   0.107E+01 0.830E+00 -.211E+01   -.104E+01 -.834E+00 0.207E+01   -.286E-01 0.161E-01 0.275E-01   0.809E-04 0.265E-03 0.195E-02
   -.107E+01 0.798E+00 0.210E+01   0.104E+01 -.834E+00 -.207E+01   0.286E-01 0.161E-01 -.275E-01   -.747E-04 0.367E-03 -.215E-02
   -.455E-01 0.476E-02 -.642E+00   0.513E-10 -.103E-09 0.633E+00   0.248E-18 0.230E-18 0.438E-02   0.114E-03 -.522E-03 0.139E-02
   0.238E-01 -.399E+01 0.130E+01   -.338E-10 0.401E+01 -.129E+01   -.543E-17 -.185E-01 -.158E-01   -.123E-03 -.746E-04 0.351E-03
   -.358E+01 0.452E+01 -.131E+01   0.353E+01 -.444E+01 0.118E+01   0.389E-01 -.924E-01 0.114E+00   -.939E-04 0.415E-03 0.602E-02
   0.345E+01 0.197E+01 0.129E+01   -.347E+01 -.200E+01 -.129E+01   0.161E-01 0.927E-02 -.158E-01   -.329E-03 0.397E-03 0.336E-03
   0.623E+00 -.925E+00 0.641E+00   -.582E+00 0.961E+00 -.628E+00   -.927E-02 -.268E-01 -.140E-01   -.359E-04 -.378E-03 -.213E-02
   -.358E+01 0.452E+01 0.131E+01   0.353E+01 -.444E+01 -.118E+01   0.389E-01 -.924E-01 -.114E+00   -.927E-04 0.414E-03 -.602E-02
   -.563E+00 -.933E+00 0.644E+00   0.582E+00 0.961E+00 -.628E+00   0.927E-02 -.268E-01 -.140E-01   -.143E-03 -.341E-03 -.217E-02
   -.121E+01 0.518E+00 -.211E+01   0.124E+01 -.485E+00 0.207E+01   0.404E-03 -.328E-01 0.275E-01   -.528E-04 -.201E-03 0.191E-02
   -.295E+01 -.172E+01 -.414E-01   0.287E+01 0.166E+01 0.952E-01   0.641E-01 0.370E-01 -.522E-01   -.115E-03 0.194E-03 -.579E-03
   0.214E+01 -.539E+01 0.131E+01   -.208E+01 0.528E+01 -.118E+01   -.605E-01 0.799E-01 -.114E+00   -.266E-03 0.268E-03 -.586E-02
   0.223E-01 0.340E+01 -.390E-01   -.213E-09 -.332E+01 0.952E-01   -.195E-16 -.740E-01 -.522E-01   -.718E-04 -.435E-04 -.899E-03
   0.127E+01 0.530E+00 -.211E+01   -.124E+01 -.485E+00 0.207E+01   -.404E-03 -.328E-01 0.275E-01   -.144E-03 -.196E-03 0.191E-02
   0.110E+01 -.755E-01 -.643E+00   -.112E+01 0.230E-01 0.628E+00   0.186E-01 0.214E-01 0.140E-01   -.162E-03 0.146E-03 0.234E-02
   -.457E-01 0.405E-02 0.249E+01   -.729E-10 -.271E-10 -.247E+01   -.723E-18 -.143E-17 -.139E-01   0.937E-04 -.303E-03 -.207E-02
   -.216E+01 0.212E+01 0.127E+01   0.212E+01 -.209E+01 -.131E+01   -.251E-04 -.214E-01 0.273E-01   0.238E-03 -.318E-03 -.156E-02
   -.216E+01 -.535E+01 -.131E+01   0.208E+01 0.528E+01 0.118E+01   0.605E-01 0.799E-01 0.114E+00   0.240E-03 0.125E-03 0.603E-02
   0.208E+01 0.212E+01 0.127E+01   -.212E+01 -.209E+01 -.131E+01   0.251E-04 -.214E-01 0.273E-01   -.699E-04 -.337E-03 -.155E-02
   0.293E+01 -.169E+01 0.372E-01   -.287E+01 0.166E+01 -.952E-01   -.641E-01 0.370E-01 0.522E-01   0.116E-03 0.117E-03 0.798E-03
   -.111E+01 -.262E-01 0.647E+00   0.112E+01 0.230E-01 -.628E+00   -.186E-01 0.214E-01 -.140E-01   0.189E-03 0.206E-04 -.218E-02
   -.292E+01 0.785E+00 -.128E+01   0.287E+01 -.791E+00 0.131E+01   0.185E-01 0.107E-01 -.273E-01   0.878E-04 -.527E-03 0.167E-02
   -.180E+00 -.132E+01 -.211E+01   0.202E+00 0.132E+01 0.207E+01   -.282E-01 0.168E-01 0.275E-01   0.145E-03 0.307E-03 0.195E-02
   -.517E+00 0.993E+00 -.649E+00   0.542E+00 -.984E+00 0.628E+00   -.279E-01 0.538E-02 0.140E-01   0.172E-03 0.189E-03 0.207E-02
   -.630E-01 0.650E-02 0.165E+02   0.500E-10 0.992E-10 -.173E+02   -.977E-18 0.127E-15 0.744E+00   0.120E-03 -.635E-03 -.984E-02
   0.561E+00 -.314E+00 -.151E+01   -.551E+00 0.318E+00 0.147E+01   -.209E-01 0.120E-01 0.311E-01   0.966E-04 0.294E-03 0.325E-02
[...]
   0.131E+00 -.829E-01 -.101E+01   -.153E+00 0.881E-01 0.101E+01   0.730E-03 -.421E-03 -.169E-02   0.151E-05 -.189E-03 0.134E-02
   0.373E-01 -.837E+00 0.148E+01   0.108E-01 0.842E+00 -.149E+01   0.145E-02 -.112E-02 0.328E-02   -.362E-04 -.256E-04 -.133E-02
   0.283E+01 0.869E+00 -.873E+00   -.278E+01 -.844E+00 0.871E+00   -.324E-01 -.835E-02 0.378E-02   0.631E-04 0.175E-03 -.166E-03
   0.604E-01 -.839E+00 0.149E+01   -.108E-01 0.842E+00 -.149E+01   -.145E-02 -.112E-02 0.328E-02   -.367E-04 -.494E-04 -.137E-02
   -.280E+01 0.827E+00 0.887E+00   0.278E+01 -.844E+00 -.871E+00   0.324E-01 -.835E-02 -.378E-02   -.758E-04 0.204E-03 0.245E-03
   -.119E+01 0.675E+00 0.164E+01   0.116E+01 -.671E+00 -.164E+01   0.603E-02 -.348E-02 0.230E-02   0.485E-04 -.129E-03 -.852E-03
   0.358E+01 0.203E+01 -.242E+01   -.343E+01 -.198E+01 0.237E+01   -.116E+00 -.672E-01 0.514E-01   -.742E-04 0.237E-03 0.253E-02
   0.475E-01 0.521E+00 0.798E+00   -.254E-09 -.511E+00 -.795E+00   -.184E-17 -.699E-02 0.121E-02   -.285E-04 -.103E-03 -.120E-02
   0.754E+00 0.385E+00 0.149E+01   -.735E+00 -.412E+00 -.149E+01   0.241E-03 0.182E-02 0.328E-02   -.100E-03 0.200E-03 -.125E-02
   0.549E-01 0.405E+00 -.191E+01   -.206E-10 -.396E+00 0.190E+01   -.181E-17 -.627E-02 -.650E-03   -.276E-04 -.736E-05 0.131E-02
   -.654E+00 -.289E+01 -.888E+00   0.658E+00 0.283E+01 0.871E+00   0.899E-02 0.323E-01 0.378E-02   -.715E-04 0.198E-03 -.220E-03
   0.220E+01 0.201E+01 -.881E+00   -.212E+01 -.198E+01 0.871E+00   -.235E-01 -.239E-01 0.378E-02   -.732E-04 -.997E-05 -.195E-03
   0.861E+00 -.138E+01 -.664E+00   -.846E+00 0.134E+01 0.655E+00   -.134E-02 0.946E-02 0.290E-02   -.121E-03 0.139E-03 0.760E-03
   -.434E+00 -.282E+00 -.796E+00   0.443E+00 0.256E+00 0.795E+00   0.605E-02 0.349E-02 -.121E-02   -.893E-04 0.112E-03 0.101E-02
   0.527E-03 -.789E-03 0.592E-03   0.346E-12 -.510E-12 -.763E-13   -.409E-15 0.407E-15 -.239E-17   0.991E-03 -.194E-03 -.705E-07

 POSITION                                       TOTAL-FORCE (eV/Angst)
      3.73408      5.03037      5.00298         0.000000     -0.000000      0.000000
      1.24453      0.71839      1.66560        -0.001006     -0.000862     -0.000358
      4.97889      7.18666      1.67287         0.000420      0.000575      0.006410
      6.22363      0.71839      1.66560         0.001006     -0.000862     -0.000358
      9.95759      7.18627      1.66932         0.000426     -0.000076     -0.000071
     11.20224      0.71862      1.66614         0.000000     -0.000000      0.001022
     -3.73408      9.34211      8.33627         0.000000     -0.000000     -0.000126
      1.24457      9.34237      8.34035        -0.000244      0.001302      0.000358
      2.48908      2.87418      8.33309        -0.000288     -0.000651     -0.006410
      6.22358      9.34237      8.34035         0.000244      0.001302      0.000358
      7.46836      2.87438      8.34132         0.001578     -0.000911     -0.001883
     12.44684      2.87446      8.33963        -0.001130     -0.001176      0.000394
     -1.24475      9.34213      1.66932        -0.000147      0.000407     -0.000071
     -0.00020      2.87438      1.66464        -0.001578     -0.000911      0.001883
      4.97907      2.87418      1.67287         0.000288     -0.000651      0.006410
      3.73408      9.34234      1.66464        -0.000000      0.001822      0.001883
      8.71291      9.34213      1.66932         0.000147      0.000407     -0.000071
      9.95764      2.87446      1.66632         0.001130     -0.001176     -0.000394
     -4.97876     11.49792      8.33664        -0.000279     -0.000331      0.000071
      0.00006     11.49801      8.33766         0.000672      0.000388      0.001570
      1.24427      5.03026      8.33309        -0.000707      0.000076     -0.006410
      6.22389      5.03026      8.33309         0.000707      0.000076     -0.006410
      4.97879     11.49808      8.33963        -0.000454      0.001566      0.000394
     11.20224      5.03030      8.33766        -0.000000     -0.000776      0.001570
     -1.24498      5.03034      1.66560        -0.001250     -0.000440     -0.000358
     -2.48939     11.49792      1.66932         0.000279     -0.000331     -0.000071
      2.48937     11.49808      1.66632         0.000454      0.001566     -0.000394
      3.73408      5.03037      1.73403         0.000000      0.000000      0.009453
      7.46810     11.49801      1.66830        -0.000672      0.000388     -0.001570
      8.71313      5.03034      1.66560         0.001250     -0.000440     -0.000358
     -0.00015      7.18632      8.33793        -0.000814      0.000470     -0.001477
      1.24453      0.71839      8.34035        -0.001006     -0.000862      0.000358
      4.97889      7.18666      8.33309         0.000420      0.000575     -0.006410
      6.22363      0.71839      8.34035         0.001006     -0.000862      0.000358
      9.95759      7.18627      8.33664         0.000426     -0.000076      0.000071
     -2.48944      7.18627      1.66932        -0.000426     -0.000076     -0.000071
     11.20224      0.71862      8.33982         0.000000     -0.000000     -0.001022
      3.73408      0.71845      1.66803        -0.000000     -0.000940      0.001477
      2.48927      7.18666      1.67287        -0.000420      0.000575      0.006410
      7.46830      7.18632      1.66803         0.000814      0.000470      0.001477
      8.71293      0.71856      1.66632         0.001583     -0.000390     -0.000394
      2.48927      7.18666      8.33309        -0.000420      0.000575     -0.006410
     13.69154      0.71856      1.66632        -0.001583     -0.000390     -0.000394
     -1.24475      9.34213      8.33664        -0.000147      0.000407      0.000071
     -0.00020      2.87438      8.34132        -0.001578     -0.000911     -0.001883
      4.97907      2.87418      8.33309         0.000288     -0.000651     -0.006410
      3.73408      9.34234      8.34132         0.000000      0.001822     -0.001883
      8.71291      9.34213      8.33664         0.000147      0.000407      0.000071
      9.95764      2.87446      8.33963         0.001130     -0.001176      0.000394
     -3.73408      9.34211      1.66969         0.000000     -0.000000      0.000126
      1.24457      9.34237      1.66560        -0.000244      0.001302     -0.000358
      2.48908      2.87418      1.67287        -0.000288     -0.000651      0.006410
      6.22358      9.34237      1.66560         0.000244      0.001302     -0.000358
      7.46836      2.87438      1.66464         0.001578     -0.000911      0.001883
     12.44684      2.87446      1.66632        -0.001130     -0.001176     -0.000394
     -1.24498      5.03034      8.34035        -0.001250     -0.000440      0.000358
     -2.48939     11.49792      8.33664         0.000279     -0.000331      0.000071
      2.48937     11.49808      8.33963         0.000454      0.001566      0.000394
      3.73408      5.03037      8.27192         0.000000     -0.000000     -0.009453
      7.46810     11.49801      8.33766        -0.000672      0.000388      0.001570
[...]
      2.48647      5.75067      8.31586         0.000324     -0.000187     -0.009693
      6.22344     12.21662      8.34046         0.000771     -0.000445      0.000755
     -6.22353     12.21673      1.66626         0.000565      0.000963     -0.000927
      7.46943      5.74911      8.33959        -0.001125     -0.000491     -0.003086
     -1.24463     12.21673      1.66626        -0.000565      0.000963     -0.000927
     -0.00127      5.74911      1.66637         0.001125     -0.000491      0.003086
     -1.24496      7.90501      1.66732         0.000863     -0.000498      0.000810
      4.98169      5.75067      1.69010        -0.000324     -0.000187      0.009693
      3.73408     12.21702      1.66456         0.000000     -0.000825      0.000486
      9.95747      5.74887      1.66626        -0.001117      0.000008     -0.000927
     -3.73408      7.90526      8.33815         0.000000      0.000213     -0.000154
      2.48886      1.43608      8.33959         0.000137      0.001220     -0.003086
      6.22421      7.90590      8.33959        -0.000988     -0.000728     -0.003086
      7.46809      1.43681      8.34202        -0.001738      0.000861     -0.000516
     12.44657      1.43704      8.34140         0.000715      0.000413     -0.000486
    total drift:                                0.001518     -0.000983      0.000592

  FREE ENERGIE OF THE ION-ELECTRON SYSTEM (eV)
  free  energy   TOTEN  =     -3067.45185456 eV

  energy  without entropy=    -3067.45185456  energy(sigma->0) =    -3067.45185456

 d Force =-0.9674890E-04[-0.828E-04,-0.111E-03]  d Energy =-0.9821386E-04 0.146E-05
 d Force =-0.2254696E-01[-0.228E-01,-0.223E-01]  d Ewald  =-0.2254696E-01-0.226E-09

 stress matrix after NEB project (eV)
     35.01135      0.00000     -0.00000
      0.00000     35.01135     -0.00000
      0.00000     -0.00000     -0.74066
  FORCES: max atom, RMS     0.009700    0.002824
  FORCE total and by dimension    0.047917    0.009693
  Stress total and by dimension   49.519067   35.011351
 Quasi-Newton relaxation of ions (Broydens 2nd method)
  g(Force)  = 0.665E-04   g(Stress)= 0.000E+00

 retain information from N=  3 steps
 eigenvalues of (default step * inverse Hessian matrix)
  average eigenvalue of G=   1.9979
 eigenvalue spectrum of G is  0.6567  2.6684  2.6684

 reached required accuracy - stopping structural energy minimisation
 writing wavefunctions

 total charge

[...]

 magnetization (x)

# of ion       s       p       d       tot
    1        0.001   0.002   0.000   0.002
    2       -0.000  -0.002   0.000  -0.002
    3       -0.000  -0.001   0.000  -0.001
    4       -0.000  -0.002   0.000  -0.002
    5       -0.000  -0.001   0.000  -0.001
    6       -0.000  -0.002   0.000  -0.002
    7       -0.000  -0.002   0.000  -0.002
    8       -0.000  -0.002   0.000  -0.002
    9       -0.000  -0.001   0.000  -0.001
   10       -0.000  -0.002   0.000  -0.002
   11       -0.000  -0.001   0.000  -0.001
   12       -0.000  -0.001   0.000  -0.001
   13       -0.000  -0.001   0.000  -0.001
   14       -0.000  -0.001   0.000  -0.001
   15       -0.000  -0.001   0.000  -0.001
   16       -0.000  -0.001   0.000  -0.001
   17       -0.000  -0.001   0.000  -0.001
   18       -0.000  -0.001   0.000  -0.001
   19       -0.000  -0.001   0.000  -0.001
   20       -0.000  -0.001   0.000  -0.001
   21       -0.000  -0.001   0.000  -0.001
   22       -0.000  -0.001   0.000  -0.001
   23       -0.000  -0.001   0.000  -0.001
   24       -0.000  -0.001   0.000  -0.001
   25       -0.000  -0.002   0.000  -0.002
   26       -0.000  -0.001   0.000  -0.001
   27       -0.000  -0.001   0.000  -0.001
   28       -0.000  -0.002   0.000  -0.002
   29       -0.000  -0.001   0.000  -0.001
   30       -0.000  -0.002   0.000  -0.002
   31       -0.000  -0.001   0.000  -0.001
   32       -0.000  -0.002   0.000  -0.002
   33       -0.000  -0.001   0.000  -0.001
   34       -0.000  -0.002   0.000  -0.002
   35       -0.000  -0.001   0.000  -0.001
   36       -0.000  -0.001   0.000  -0.001
   37       -0.000  -0.002   0.000  -0.002
   38       -0.000  -0.001   0.000  -0.001
   39       -0.000  -0.001   0.000  -0.001
   40       -0.000  -0.001   0.000  -0.001
   41       -0.000  -0.001   0.000  -0.001
   42       -0.000  -0.001   0.000  -0.001
   43       -0.000  -0.001   0.000  -0.001
   44       -0.000  -0.001   0.000  -0.001
   45       -0.000  -0.001   0.000  -0.001
   46       -0.000  -0.001   0.000  -0.001
   47       -0.000  -0.001   0.000  -0.001
   48       -0.000  -0.001   0.000  -0.001
   49       -0.000  -0.001   0.000  -0.001
   50       -0.000  -0.002   0.000  -0.002
   51       -0.000  -0.002   0.000  -0.002
   52       -0.000  -0.001   0.000  -0.001
   53       -0.000  -0.002   0.000  -0.002
   54       -0.000  -0.001   0.000  -0.001
   55       -0.000  -0.001   0.000  -0.001
   56       -0.000  -0.002   0.000  -0.002
   57       -0.000  -0.001   0.000  -0.001
   58       -0.000  -0.001   0.000  -0.001
   59       -0.000  -0.002   0.000  -0.002
   60       -0.000  -0.001   0.000  -0.001
[...]
  274        0.000   0.005   0.000   0.006
  275        0.000   0.000   0.000   0.000
  276        0.000   0.004   0.000   0.005
  277        0.000   0.004   0.000   0.005
  278        0.000   0.004   0.000   0.005
  279        0.000   0.004   0.000   0.005
  280        0.000   0.000   0.000   0.000
  281        0.000   0.005   0.000   0.006
  282        0.000   0.004   0.000   0.005
  283        0.000   0.004   0.000   0.005
  284        0.000   0.004   0.000   0.005
  285        0.000   0.004   0.000   0.005
  286        0.000   0.004   0.000   0.005
  287        0.000   0.004   0.000   0.004
  288        0.000   0.004   0.000   0.005
tot          0.018  -0.414   0.000  -0.396