 vasp.6.4.2 20Jul23 (build Nov 06 2023 14:18:49) gamma-only

 executed on             LinuxIFC date 2024.10.06  13:50:49

 INCAR:
   NELECT = 1151
   NCORE = 24
   LREAL = Auto
   ISTART = 0
   ICHARG = 2
   LORBIT = 11
   ENCUT = 500
   EDIFF = 1E-4
   NELM = 60
   NELMIN = 4
   IBRION = 1
   NSW = 900
   POTIM = 0.3
   ISIF = 2
   EDIFFG = -1E-2
   ADDGRID = .TRUE.
   ISMEAR = 0
   SIGMA = 0.01
   IVDW = 11
   VDW_S8 = 0.109
   VDW_SR = 1.129
   ISPIN = 2
   GGA = PE
   LHFCALC = .TRUE.
   AEXX = 0.32
   HFSCREEN = 0.2
   ALGO = Normal
   TIME = 0.4
   PRECFOCK = Fast

 POTCAR:    PAW_PBE N 08Apr2002
 POTCAR:    PAW_PBE B 06Sep2000
|           W    W    AA    RRRRR   N    N  II  N    N   GGGG   !!!           |
|           W    W   A  A   R    R  NN   N  II  NN   N  G    G  !!!           |
|           W    W  A    A  R    R  N N  N  II  N N  N  G       !!!           |
|           W WW W  AAAAAA  RRRRR   N  N N  II  N  N N  G  GGG   !            |
|           WW  WW  A    A  R   R   N   NN  II  N   NN  G    G                |
|           W    W  A    A  R    R  N    N  II  N    N   GGGG   !!!           |
|     You use a magnetic or noncollinear calculation, but did not specify     |
|     the initial magnetic moment with the MAGMOM tag. Note that a            |
|     default of 1 will be used for all atoms. This ferromagnetic setup       |
|     may break the symmetry of the crystal, in particular it may rule        |
|     out finding an antiferromagnetic solution. Thence, we recommend         |
|     setting the initial magnetic moment manually or verifying carefully     |
|     that this magnetic setup is desired.                                    |

   TITEL  = PAW_PBE N 08Apr2002
   POMASS =   14.001; ZVAL   =    5.000    mass and valenz
   ENMAX  =  400.000; ENMIN  =  300.000 eV

   TITEL  = PAW_PBE B 06Sep2000
   POMASS =   10.811; ZVAL   =    3.000    mass and valenz
   ENMAX  =  318.614; ENMIN  =  238.960 eV

 Optimization of the real space projectors (new method)

 maximal supplied QI-value         = 25.13
 optimisation between [QCUT,QGAM] = [ 11.31, 22.87] = [ 35.82,146.48] Ry
 Optimized for a Real-space Cutoff    1.27 Angstroem

   l    n(q)    QCUT    max X(q) W(low)/X(q) W(high)/X(q)  e(spline)
   0      9    11.310    79.467    0.75E-04    0.16E-03    0.36E-06
   0      9    11.310    66.151    0.74E-04    0.16E-03    0.36E-06
   1      8    11.310    17.416    0.35E-03    0.12E-03    0.95E-06
   1      8    11.310    12.382    0.37E-03    0.13E-03    0.98E-06
 Optimization of the real space projectors (new method)

 maximal supplied QI-value         = 22.11
 optimisation between [QCUT,QGAM] = [ 11.28, 22.77] = [ 35.61,145.23] Ry
 Optimized for a Real-space Cutoff    1.16 Angstroem

   l    n(q)    QCUT    max X(q) W(low)/X(q) W(high)/X(q)  e(spline)
   0      8    11.276    53.033    0.48E-03    0.56E-03    0.11E-06
   0      8    11.276    34.740    0.48E-03    0.55E-03    0.11E-06
   1      7    11.276    30.949    0.26E-03    0.19E-04    0.19E-06
   1      7    11.276    19.518    0.24E-03    0.14E-04    0.18E-06
  PAW_PBE N 08Apr2002                   :
  PAW_PBE B 06Sep2000                   :

 POSCAR: Species order: X N B
  positions in direct lattice
 exchange correlation table for  LEXCH =        8
   RHO(1)=    0.500       N(1)  =     2000
   RHO(2)=  100.500       N(2)  =     4000

 VTST: version 4.1, (05/19/21)

 CHAIN: initializing optimizer

 OPT: Using VASP QUASI-newton optimizer
 CHAIN: Read ICHAIN            0

 POSCAR: Species order: X N B
  positions in direct lattice

 ion  position               nearest neighbor table
   1  0.111  0.056  0.125- 252 1.44 216 1.44 275 1.44
   2  0.611  0.556  0.125- 254 1.44 217 1.44 280 1.44
   3  0.444  0.056  0.125- 218 1.44 255 1.44 277 1.44
   4  0.944  0.556  0.125- 219 1.44 250 1.44 282 1.44
   5  0.778  0.056  0.125- 257 1.44 220 1.44 281 1.44
   6  0.111  0.722  0.625- 258 1.44 283 1.44 221 1.44
   7  0.444  0.722  0.625- 256 1.44 222 1.44 261 1.44
   8  0.278  0.222  0.625- 260 1.44 284 1.44 223 1.44
   9  0.778  0.722  0.625- 262 1.44 285 1.44 224 1.44
  10  0.611  0.222  0.625- 263 1.44 286 1.44 225 1.44
  11  0.944  0.222  0.625- 287 1.44 226 1.44 259 1.44
  12  0.278  0.722  0.125- 265 1.44 279 1.44 227 1.44
  13  0.111  0.222  0.125- 266 1.44 216 1.44 228 1.44
  14  0.444  0.222  0.125- 218 1.44 229 1.44 268 1.44
  15  0.611  0.722  0.125- 267 1.44 217 1.44 230 1.44
  16  0.944  0.722  0.125- 219 1.44 231 1.44 264 1.44
  17  0.778  0.222  0.125- 269 1.44 220 1.44 232 1.44
  18  0.111  0.889  0.625- 271 1.44 221 1.44 233 1.44
  19  0.444  0.889  0.625- 222 1.44 234 1.44 272 1.44
  20  0.278  0.389  0.625- 273 1.44 223 1.44 235 1.44
  21  0.611  0.389  0.625- 276 1.44 225 1.44 236 1.44
  22  0.778  0.889  0.625- 274 1.44 224 1.44 237 1.44
  23  0.944  0.389  0.625- 226 1.44 238 1.44 270 1.44
  24  0.111  0.389  0.125- 278 1.44 228 1.44 239 1.44
  25  0.278  0.889  0.125- 277 1.44 227 1.44 240 1.44
  26  0.611  0.889  0.125- 281 1.44 230 1.44 241 1.44
  27  0.444  0.389  0.125- 229 1.44 242 1.44 280 1.44
  28  0.944  0.889  0.125- 231 1.44 243 1.44 275 1.44
  29  0.778  0.389  0.125- 282 1.44 232 1.44 244 1.44
  30  0.278  0.556  0.625- 256 1.44 245 1.44 235 1.44
  31  0.111  0.056  0.625- 284 1.44 246 1.44 233 1.44
  32  0.611  0.556  0.625- 285 1.44 247 1.44 236 1.44
  33  0.444  0.056  0.625- 248 1.44 286 1.44 234 1.44
  34  0.944  0.556  0.625- 249 1.44 283 1.44 238 1.44
  35  0.111  0.556  0.125- 279 1.44 250 1.44 239 1.44
  36  0.778  0.056  0.625- 287 1.44 251 1.44 237 1.44
  37  0.278  0.056  0.125- 218 1.44 252 1.44 240 1.44
  38  0.444  0.556  0.125- 253 1.44 217 1.44 242 1.44
  39  0.778  0.556  0.125- 219 1.44 254 1.44 244 1.44
  40  0.611  0.056  0.125- 220 1.44 255 1.44 241 1.44
  41  0.444  0.556  0.625- 256 1.44 247 1.44 273 1.44
  42  0.944  0.056  0.125- 257 1.44 216 1.44 243 1.44
  43  0.278  0.722  0.625- 222 1.44 245 1.44 258 1.44
  44  0.111  0.222  0.625- 223 1.44 246 1.44 259 1.44
  45  0.444  0.222  0.625- 248 1.44 260 1.44 225 1.44
  46  0.611  0.722  0.625- 224 1.44 247 1.44 261 1.44
  47  0.944  0.722  0.625- 249 1.44 262 1.44 221 1.44
  48  0.778  0.222  0.625- 226 1.44 251 1.44 263 1.44
  49  0.111  0.722  0.125- 227 1.44 250 1.44 264 1.44
  50  0.444  0.722  0.125- 253 1.44 265 1.44 230 1.44
  51  0.278  0.222  0.125- 229 1.44 252 1.44 266 1.44
  52  0.778  0.722  0.125- 231 1.44 254 1.44 267 1.44
  53  0.611  0.222  0.125- 232 1.44 255 1.44 268 1.44
  54  0.944  0.222  0.125- 257 1.44 269 1.44 228 1.44
  55  0.111  0.389  0.625- 235 1.44 259 1.44 270 1.44
  56  0.278  0.889  0.625- 234 1.44 258 1.44 271 1.44
  57  0.611  0.889  0.625- 237 1.44 261 1.44 272 1.44
  58  0.444  0.389  0.625- 260 1.44 273 1.44 236 1.44
  59  0.944  0.889  0.625- 262 1.44 274 1.44 233 1.44
  60  0.111  0.889  0.125- 240 1.44 264 1.44 275 1.44
[...]
 274  0.889  0.944  0.625-  22 1.44  59 1.44  72 1.44
 275  0.056  0.944  0.125-  60 1.44  28 1.44   1 1.44
 276  0.722  0.444  0.625-  21 1.44  61 1.44  70 1.44
 277  0.389  0.944  0.125-  25 1.44  62 1.44   3 1.44
 278  0.222  0.444  0.125-  24 1.44  63 1.44  64 1.44
 279  0.222  0.611  0.125-  35 1.44  12 1.44  64 1.44
 280  0.556  0.444  0.125-  65 1.44  27 1.44   2 1.44
 281  0.722  0.944  0.125-  26 1.44  66 1.44   5 1.44
 282  0.889  0.444  0.125-  29 1.44  67 1.44   4 1.44
 283  0.056  0.611  0.625-   6 1.44  68 1.44  34 1.44
 284  0.222  0.111  0.625-  31 1.44   8 1.44  69 1.44
 285  0.722  0.611  0.625-  32 1.44   9 1.44  70 1.44
 286  0.556  0.111  0.625-  10 1.44  71 1.44  33 1.44
 287  0.889  0.111  0.625-  36 1.44  11 1.44  72 1.44
 288  0.556  0.444  0.375- 208 1.44 170 1.44 145 1.44

  LATTYP: Found a hexagonal cell.
 ALAT       =    14.9363141462
 C/A-ratio  =     0.8932107448

  Lattice vectors:

 A1 = (  14.9363141462,   0.0000000000,   0.0000000000)
 A2 = (  -7.4681570731,  12.9352274895,  -0.0000000000)
 A3 = (   0.0000000000,   0.0000000000,  13.3412762838)

Analysis of symmetry for initial positions (statically):
 Subroutine PRICEL returns:
 Original cell was already a primitive cell.

 Routine SETGRP: Setting up the symmetry group for a
 hexagonal supercell.

 Subroutine GETGRP returns: Found 12 space group operations
 (whereof  2 operations were pure point group operations)
 out of a pool of 24 trial point group operations.

The static configuration has the point symmetry C_1h.
 The point group associated with its full space group is D_3h.

Analysis of symmetry for dynamics (positions and initial velocities):
 Subroutine PRICEL returns:
 Original cell was already a primitive cell.

[...]

The dynamic configuration has the point symmetry C_1h.
 The point group associated with its full space group is D_3h.

Analysis of structural, dynamic, and magnetic symmetry:
 Subroutine PRICEL returns:
 Original cell was already a primitive cell.

 Routine SETGRP: Setting up the symmetry group for a
 hexagonal supercell.

 Subroutine GETGRP returns: Found 12 space group operations
 (whereof  2 operations were pure point group operations)
 out of a pool of 24 trial point group operations.

The overall configuration has the point symmetry C_1h.
 The point group associated with its full space group is D_3h.

 Subroutine INISYM returns: Found 12 space group operations
 (whereof  2 operations are pure point group operations),
 and found     1 'primitive' translations

                                     Primitive cell

  volume of cell :    2577.5962

  direct lattice vectors                    reciprocal lattice vectors
    14.936314146  0.000000000  0.000000000     0.066950922  0.038654133 -0.000000000
    -7.468157073 12.935227490 -0.000000000     0.000000000  0.077308265 -0.000000000
     0.000000000  0.000000000 13.341276284     0.000000000  0.000000000  0.074955348

  length of vectors
    14.936314146 14.936314146 13.341276284     0.077308265  0.077308265  0.074955348

  position of ions in fractional coordinates (direct lattice)
     0.111111111  0.055555556  0.125000000
     0.611111111  0.555555556  0.125000000
     0.444444444  0.055555556  0.125000000
     0.944444444  0.555555556  0.125000000
     0.777777778  0.055555556  0.125000000
     0.111111111  0.722222222  0.625000000
     0.444444444  0.722222222  0.625000000
     0.277777778  0.222222222  0.625000000
     0.777777778  0.722222222  0.625000000
     0.611111111  0.222222222  0.625000000
     0.944444444  0.222222222  0.625000000
     0.277777778  0.722222222  0.125000000
     0.111111111  0.222222222  0.125000000
     0.444444444  0.222222222  0.125000000
     0.611111111  0.722222222  0.125000000
     0.944444444  0.722222222  0.125000000
     0.777777778  0.222222222  0.125000000
     0.111111111  0.888888889  0.625000000
     0.444444444  0.888888889  0.625000000
     0.277777778  0.388888889  0.625000000
     0.611111111  0.388888889  0.625000000
     0.777777778  0.888888889  0.625000000
     0.944444444  0.388888889  0.625000000
     0.111111111  0.388888889  0.125000000
     0.277777778  0.888888889  0.125000000
     0.611111111  0.888888889  0.125000000
     0.444444444  0.388888889  0.125000000
     0.944444444  0.888888889  0.125000000
[...]
   -.158E+01 -.136E+01 -.426E+00   0.165E+01 0.140E+01 0.442E+00   -.629E-01 -.374E-01 -.160E-01   0.218E-02 -.353E-02 -.944E-03
   -.310E-03 0.704E+01 0.106E+02   -.939E-11 -.731E+01 -.104E+02   0.696E-16 0.244E+00 -.243E+00   0.438E-06 0.199E-02 0.283E-02
   0.116E+01 -.350E+01 0.724E+00   -.121E+01 0.360E+01 -.706E+00   0.417E-01 -.897E-01 -.213E-01   -.827E-03 -.583E-02 0.125E-03
   0.361E+01 0.742E+00 0.724E+00   -.372E+01 -.756E+00 -.706E+00   0.985E-01 0.872E-02 -.213E-01   0.464E-02 0.363E-02 0.126E-03
   -.319E-03 0.310E-01 0.521E+00   -.409E-10 -.268E-01 -.535E+00   -.187E-17 -.676E-02 0.105E-01   -.385E-06 0.425E-02 0.126E-02
   0.554E+00 0.320E+00 -.894E+00   -.579E+00 -.334E+00 0.911E+00   0.238E-01 0.137E-01 -.153E-01   -.134E-02 -.776E-03 -.167E-02
   -.116E+01 -.350E+01 -.728E+00   0.121E+01 0.360E+01 0.706E+00   -.417E-01 -.897E-01 0.213E-01   0.827E-03 -.583E-02 -.125E-03
   -.624E+01 0.361E+01 -.642E+01   0.643E+01 -.371E+01 0.645E+01   -.161E+00 0.927E-01 -.156E-01   -.388E-02 0.224E-02 -.236E-02
   0.624E+01 0.361E+01 -.642E+01   -.643E+01 -.371E+01 0.645E+01   0.161E+00 0.927E-01 -.156E-01   0.388E-02 0.224E-02 -.236E-02
   0.158E+01 -.136E+01 0.422E+00   -.165E+01 0.140E+01 -.442E+00   0.629E-01 -.374E-01 0.160E-01   -.218E-02 -.353E-02 0.944E-03
   -.624E+01 0.361E+01 0.642E+01   0.643E+01 -.371E+01 -.645E+01   -.161E+00 0.927E-01 0.156E-01   -.388E-02 0.224E-02 0.236E-02
   -.554E+00 0.320E+00 0.890E+00   0.579E+00 -.334E+00 -.911E+00   -.238E-01 0.137E-01 0.153E-01   0.134E-02 -.775E-03 0.167E-02
   -.921E+00 0.532E+00 -.420E+00   0.949E+00 -.548E+00 0.430E+00   -.230E-01 0.133E-01 -.104E-01   -.319E-02 0.184E-02 -.141E-02
   -.274E+01 -.158E+01 -.133E+00   0.285E+01 0.165E+01 0.154E+00   -.989E-01 -.571E-01 -.213E-01   -.343E-03 -.199E-03 -.869E-03
   -.570E-04 -.721E+01 0.642E+01   0.727E-11 0.742E+01 -.645E+01   -.502E-16 -.185E+00 0.156E-01   0.286E-06 -.448E-02 0.236E-02
   -.172E+01 0.605E+01 0.290E+01   0.176E+01 -.629E+01 -.289E+01   -.354E-01 0.205E+00 -.204E-01   -.253E-02 0.207E-02 0.542E-03
   0.245E+01 0.275E+01 0.724E+00   -.252E+01 -.285E+01 -.706E+00   0.568E-01 0.810E-01 -.213E-01   0.546E-02 0.220E-02 0.126E-03
   0.274E+01 -.158E+01 -.133E+00   -.285E+01 0.165E+01 0.154E+00   0.989E-01 -.571E-01 -.213E-01   0.343E-03 -.199E-03 -.869E-03
   0.921E+00 0.531E+00 0.416E+00   -.949E+00 -.548E+00 -.430E+00   0.230E-01 0.133E-01 0.104E-01   0.319E-02 0.184E-02 0.141E-02
   -.245E+01 0.275E+01 -.728E+00   0.252E+01 -.285E+01 0.706E+00   -.568E-01 0.810E-01 0.213E-01   -.546E-02 0.220E-02 -.127E-03
   -.438E+01 -.451E+01 -.291E+01   0.456E+01 0.467E+01 0.289E+01   -.160E+00 -.133E+00 0.204E-01   -.530E-03 -.323E-02 -.540E-03
   0.172E+01 0.605E+01 -.291E+01   -.176E+01 -.629E+01 0.289E+01   0.354E-01 0.205E+00 0.204E-01   0.253E-02 0.207E-02 -.542E-03
   0.438E+01 -.451E+01 -.291E+01   -.456E+01 0.467E+01 0.289E+01   0.160E+00 -.133E+00 0.204E-01   0.530E-03 -.323E-02 -.540E-03
   -.591E-04 -.640E+00 0.890E+00   0.396E-10 0.669E+00 -.911E+00   -.769E-17 -.274E-01 0.153E-01   0.192E-06 0.155E-02 0.167E-02
   -.196E+01 -.690E+00 -.426E+00   0.204E+01 0.726E+00 0.442E+00   -.638E-01 -.357E-01 -.160E-01   -.197E-02 0.365E-02 -.944E-03
   0.275E-03 -.106E+01 -.420E+00   0.954E-11 0.110E+01 0.430E+00   -.700E-17 -.265E-01 -.104E-01   -.680E-06 -.368E-02 -.141E-02
   -.384E+00 0.205E+01 -.426E+00   0.390E+00 -.213E+01 0.442E+00   -.953E-03 0.731E-01 -.160E-01   -.415E-02 -.123E-03 -.943E-03
   -.609E+01 -.352E+01 0.106E+02   0.633E+01 0.365E+01 -.104E+02   -.211E+00 -.122E+00 -.243E+00   -.173E-02 -.998E-03 0.283E-02
   0.384E+00 0.205E+01 -.426E+00   -.390E+00 -.213E+01 0.442E+00   0.953E-03 0.731E-01 -.160E-01   0.415E-02 -.124E-03 -.943E-03
   0.266E-01 -.154E-01 0.521E+00   -.232E-01 0.134E-01 -.535E+00   -.585E-02 0.338E-02 0.105E-01   0.368E-02 -.213E-02 0.126E-02
[...]
   -.260E+00 0.150E+00 -.241E+00   0.246E+00 -.142E+00 0.240E+00   0.112E-01 -.644E-02 -.223E-02   0.168E-02 -.967E-03 0.688E-03
   0.381E+01 -.382E+00 0.666E+01   -.395E+01 0.354E+00 -.666E+01   0.125E+00 0.239E-01 0.617E-02   0.150E-02 0.443E-03 0.134E-02
   0.218E+00 -.735E+00 -.469E+00   -.213E+00 0.778E+00 0.468E+00   -.337E-02 -.365E-01 -.218E-02   -.753E-03 -.195E-02 0.593E-03
   -.203E+01 -.323E+00 -.138E+01   0.211E+01 0.304E+00 0.138E+01   -.671E-01 0.160E-01 -.110E-02   -.154E-02 0.140E-02 0.115E-03
   -.745E+00 0.178E+00 -.469E+00   0.780E+00 -.204E+00 0.468E+00   -.300E-01 0.212E-01 -.218E-02   -.131E-02 0.163E-02 0.593E-03
   0.261E-04 -.156E-04 -.169E+02   -.486E-11 0.397E-11 0.167E+02   0.769E-22 0.177E-16 0.104E+00   0.383E-06 -.204E-06 -.189E-02
   0.429E-01 0.968E+00 -.344E+00   -.321E-01 -.991E+00 0.341E+00   -.819E-02 0.213E-01 -.136E-02   -.890E-03 -.176E-03 0.715E-03
   0.203E+01 -.323E+00 -.138E+01   -.211E+01 0.304E+00 0.138E+01   0.671E-01 0.160E-01 -.110E-02   0.154E-02 0.140E-02 0.116E-03
   0.745E+00 0.178E+00 0.468E+00   -.780E+00 -.204E+00 -.468E+00   0.300E-01 0.212E-01 0.218E-02   0.131E-02 0.163E-02 -.593E-03
   -.130E+01 -.160E+01 0.138E+01   0.132E+01 0.167E+01 -.138E+01   -.197E-01 -.661E-01 0.110E-02   0.442E-03 -.203E-02 -.116E-03
   0.157E+01 0.349E+01 0.666E+01   -.167E+01 -.360E+01 -.666E+01   0.833E-01 0.966E-01 0.617E-02   0.113E-02 0.108E-02 0.134E-02
   0.130E+01 -.160E+01 0.138E+01   -.132E+01 0.167E+01 -.138E+01   0.197E-01 -.661E-01 0.110E-02   -.442E-03 -.203E-02 -.116E-03
   0.167E-03 -.968E-04 0.726E-01   0.107E-10 -.504E-11 -.701E-01   -.422E-21 0.261E-18 0.154E-02   0.102E-07 0.955E-07 -.107E-02
   -.150E-04 0.864E-05 -.714E-04   0.352E-11 -.143E-11 -.158E-13   -.267E-21 0.824E-22 0.227E-21   0.154E-05 -.129E-05 0.126E-07
   0.982E-04 -.589E-04 -.393E-02   -.201E-12 0.520E-12 0.728E-13   0.279E-14 0.430E-15 -.716E-17   -.337E-05 0.500E-05 -.891E-06

 POSITION                                       TOTAL-FORCE (eV/Angst)
      1.24443      0.71864      1.66635         0.000485      0.000409     -0.000374
      4.97877      7.18728      1.65708        -0.000000     -0.001190      0.002213
      6.22356      0.71883      1.66629         0.000194      0.000749      0.001373
      9.95741      7.18606      1.66629        -0.000552     -0.000542      0.001373
     11.20237      0.71870      1.66632        -0.000312     -0.000180     -0.001213
     -3.73419      9.34204      8.33944         0.000168      0.000097      0.000652
      1.24491      9.34209      8.33967         0.000746     -0.000207     -0.001373
      2.48898      2.87436      8.34061         0.000708      0.001060      0.001329
      6.22338      9.34253      8.34061        -0.000563     -0.001143      0.001329
      7.46857      2.87436      8.34061        -0.000708      0.001060      0.001329
     12.44693      2.87434      8.33964         0.000000      0.000360      0.001213
     -1.24458      9.34204      1.66652        -0.000168      0.000097     -0.000652
     -0.00035      2.87429      1.66611         0.000758      0.000437     -0.000285
      4.97877      2.87468      1.66581         0.000000      0.001479      0.001971
      3.73416      9.34253      1.66535         0.000563     -0.001143     -0.001329
      8.71263      9.34209      1.66629        -0.000746     -0.000207      0.001373
      9.95789      2.87429      1.66611        -0.000758      0.000437     -0.000285
     -4.97894     11.49808      8.33947         0.000239     -0.000138      0.000880
      0.00017     11.49808      8.33947        -0.000239     -0.000138      0.000880
      1.24437      5.03008      8.34061         0.001272      0.000084      0.001329
      6.22437      5.02984      8.34888        -0.001030      0.000595     -0.002213
      4.97877     11.49839      8.33985        -0.000000     -0.000875      0.000285
     11.20235      5.03013      8.33961        -0.000597      0.000216      0.000374
     -1.24481      5.03013      1.66635         0.000597      0.000216     -0.000374
     -2.48939     11.49811      1.66652        -0.000000     -0.000195     -0.000652
      2.48954     11.49820      1.66635         0.000111     -0.000625     -0.000374
      3.73317      5.02984      1.65708         0.001030      0.000595      0.002213
      7.46801     11.49820      1.66635        -0.000111     -0.000625     -0.000374
      8.71317      5.03008      1.66535        -0.001272      0.000084     -0.001329
      0.00013      7.18606      8.33967         0.000552     -0.000542     -0.001373
      1.24443      0.71864      8.33961         0.000485      0.000409      0.000374
      4.97877      7.18728      8.34888        -0.000000     -0.001190     -0.002213
      6.22356      0.71883      8.33967         0.000194      0.000749     -0.001373
      9.95741      7.18606      8.33967        -0.000552     -0.000542     -0.001373
     -2.48939      7.18604      1.66649         0.000000      0.000276     -0.000880
     11.20237      0.71870      8.33964        -0.000312     -0.000180      0.001213
      3.73399      0.71883      1.66629        -0.000194      0.000749      0.001373
      2.48954      7.18615      1.66581         0.001281     -0.000740      0.001971
      7.46800      7.18615      1.66581        -0.001281     -0.000740      0.001971
      8.71312      0.71864      1.66635        -0.000485      0.000409     -0.000374
      2.48954      7.18615      8.34015         0.001281     -0.000740     -0.001971
     13.69149      0.71870      1.66632         0.000312     -0.000180     -0.001213
     -1.24458      9.34204      8.33944        -0.000168      0.000097      0.000652
     -0.00035      2.87429      8.33985         0.000758      0.000437      0.000285
      4.97877      2.87468      8.34015         0.000000      0.001479     -0.001971
      3.73416      9.34253      8.34061         0.000563     -0.001143      0.001329
      8.71263      9.34209      8.33967        -0.000746     -0.000207     -0.001373
      9.95789      2.87429      8.33985        -0.000758      0.000437      0.000285
     -3.73419      9.34204      1.66652         0.000168      0.000097     -0.000652
      1.24491      9.34209      1.66629         0.000746     -0.000207      0.001373
      2.48898      2.87436      1.66535         0.000708      0.001060     -0.001329
      6.22338      9.34253      1.66535        -0.000563     -0.001143     -0.001329
      7.46857      2.87436      1.66535        -0.000708      0.001060     -0.001329
     12.44693      2.87434      1.66632         0.000000      0.000360     -0.001213
     -1.24481      5.03013      8.33961         0.000597      0.000216      0.000374
     -2.48939     11.49811      8.33944        -0.000000     -0.000195      0.000652
      2.48954     11.49820      8.33961         0.000111     -0.000625      0.000374
      3.73317      5.02984      8.34888         0.001030      0.000595     -0.002213
      7.46801     11.49820      8.33961        -0.000111     -0.000625      0.000374
     -4.97894     11.49808      1.66649         0.000239     -0.000138     -0.000880
[...]
      6.22318     12.21633      8.33712        -0.000420      0.000589      0.000651
     -6.22395     12.21689      1.66873        -0.000597      0.000345     -0.000197
      7.46541      5.74814      8.33489         0.000747      0.000317     -0.001246
     -1.24449     12.21768      1.66873         0.000407      0.000722     -0.000230
      0.00150      5.74832      1.66944        -0.000143     -0.000109     -0.000009
     -1.24386      7.90415      1.66873         0.000422     -0.000713     -0.000230
      4.97877      5.74899      1.68808        -0.000000     -0.000000     -0.003089
      3.73437     12.21633      1.66884         0.000420      0.000589     -0.000651
      9.95604      5.74832      1.66944         0.000143     -0.000109     -0.000009
     -3.73491      7.90415      8.33722        -0.000422     -0.000713      0.000230
      2.48956      1.43889      8.33652        -0.000166     -0.000070      0.000009
      6.22136      7.90290      8.33489         0.000648      0.000488     -0.001246
      7.46799      1.43889      8.33652         0.000166     -0.000070      0.000009
     12.44693      1.43725      8.33729         0.000000      0.000000      0.001303
      4.97877      5.74899      5.00298         0.000000      0.000000     -0.000000
    total drift:                                0.000095     -0.000054     -0.003934

  FREE ENERGIE OF THE ION-ELECTRON SYSTEM (eV)
  free  energy   TOTEN  =     -3064.44239884 eV

  energy  without entropy=    -3064.44239884  energy(sigma->0) =    -3064.44239884

 d Force = 0.2909186E-03[ 0.135E-04, 0.568E-03]  d Energy = 0.3020820E-03-0.112E-04
 d Force =-0.4886970E-01[-0.500E-01,-0.477E-01]  d Ewald  =-0.4886909E-01-0.610E-06

 stress matrix after NEB project (eV)
     28.92581      0.00000      0.00000
      0.00000     28.92581      0.00000
      0.00000      0.00000      9.17564
  FORCES: max atom, RMS     0.006484    0.002136
  FORCE total and by dimension    0.036253    0.006484
  Stress total and by dimension   41.923716   28.925814
 Quasi-Newton relaxation of ions (Broydens 2nd method)
  g(Force)  = 0.380E-04   g(Stress)= 0.000E+00

 retain information from N=  3 steps
 eigenvalues of (default step * inverse Hessian matrix)
  average eigenvalue of G=   2.3301
 eigenvalue spectrum of G is  6.2486  0.6752  0.0665

 reached required accuracy - stopping structural energy minimisation
 writing wavefunctions

 total charge

[...]

 magnetization (x)

# of ion       s       p       d       tot
    1       -0.000  -0.000   0.000  -0.000
    2        0.001   0.004   0.000   0.005
    3        0.000   0.000   0.000   0.000
    4        0.000   0.000   0.000   0.000
    5       -0.000  -0.000   0.000  -0.000
    6       -0.000  -0.000   0.000  -0.000
    7        0.000   0.000   0.000   0.000
    8       -0.000   0.000   0.000   0.000
    9       -0.000   0.000   0.000   0.000
   10       -0.000   0.000   0.000   0.000
   11       -0.000  -0.000   0.000  -0.000
   12       -0.000  -0.000   0.000  -0.000
   13        0.000   0.000   0.000   0.000
   14        0.000   0.001   0.000   0.001
   15       -0.000   0.000   0.000   0.000
   16        0.000   0.000   0.000   0.000
   17        0.000   0.000   0.000   0.000
   18        0.000   0.000   0.000   0.000
   19        0.000   0.000   0.000   0.000
   20       -0.000   0.000   0.000   0.000
   21        0.001   0.004   0.000   0.005
   22        0.000   0.000   0.000   0.000
   23       -0.000  -0.000   0.000  -0.000
   24       -0.000  -0.000   0.000  -0.000
   25       -0.000  -0.000   0.000  -0.000
   26       -0.000  -0.000   0.000  -0.000
   27        0.001   0.004   0.000   0.005
   28       -0.000  -0.000   0.000  -0.000
   29       -0.000   0.000   0.000   0.000
   30        0.000   0.000   0.000   0.000
   31       -0.000  -0.000   0.000  -0.000
   32        0.001   0.004   0.000   0.005
   33        0.000   0.000   0.000   0.000
   34        0.000   0.000   0.000   0.000
   35        0.000   0.000   0.000   0.000
   36       -0.000  -0.000   0.000  -0.000
   37        0.000   0.000   0.000   0.000
   38        0.000   0.001   0.000   0.001
   39        0.000   0.001   0.000   0.001
   40       -0.000  -0.000   0.000  -0.000
   41        0.000   0.001   0.000   0.001
   42       -0.000  -0.000   0.000  -0.000
   43       -0.000  -0.000   0.000  -0.000
   44        0.000   0.000   0.000   0.000
   45        0.000   0.001   0.000   0.001
   46       -0.000   0.000   0.000   0.000
   47        0.000   0.000   0.000   0.000
   48        0.000   0.000   0.000   0.000
   49       -0.000  -0.000   0.000  -0.000
   50        0.000   0.000   0.000   0.000
   51       -0.000   0.000   0.000   0.000
   52       -0.000   0.000   0.000   0.000
   53       -0.000   0.000   0.000   0.000
   54       -0.000  -0.000   0.000  -0.000
   55       -0.000  -0.000   0.000  -0.000
   56       -0.000  -0.000   0.000  -0.000
   57       -0.000  -0.000   0.000  -0.000
   58        0.001   0.004   0.000   0.005
   59       -0.000  -0.000   0.000  -0.000
   60        0.000   0.000   0.000   0.000
[...]
  274        0.000   0.000   0.000   0.000
  275       -0.000   0.000   0.000   0.000
  276       -0.000  -0.000   0.000  -0.000
  277       -0.000   0.000   0.000   0.000
  278       -0.000  -0.000   0.000  -0.000
  279       -0.000   0.000   0.000   0.000
  280       -0.000  -0.001   0.000  -0.001
  281        0.000   0.000   0.000   0.000
  282       -0.000  -0.000   0.000  -0.000
  283       -0.000   0.000   0.000   0.000
  284       -0.000  -0.000   0.000  -0.000
  285       -0.000  -0.000   0.000  -0.000
  286       -0.000  -0.000   0.000  -0.000
  287        0.000   0.000   0.000   0.000
  288        0.005   0.196   0.000   0.201
tot          0.007   0.419   0.000   0.426