 vasp.6.4.2 20Jul23 (build Nov 06 2023 14:18:49) gamma-only

 executed on             LinuxIFC date 2024.10.18  14:55:15

 INCAR:
   FERDO = 576*1 0 1 306*0
   FERWE = 576*1 308*0
   NELECT = 1153
   NCORE = 24
   LREAL = Auto
   ISTART = 0
   ICHARG = 2
   LORBIT = 11
   ENCUT = 500
   EDIFF = 1E-4
   NELM = 60
   NELMIN = 4
   IBRION = 1
   NSW = 900
   POTIM = 0.3
   ISIF = 2
   EDIFFG = -1E-2
   ADDGRID = .TRUE.
   ISMEAR = -2
   IVDW = 11
   VDW_S8 = 0.109
   VDW_SR = 1.129
   ISPIN = 2
   GGA = PE
   LHFCALC = .TRUE.
   AEXX = 0.32
   HFSCREEN = 0.2
   ALGO = Normal
   TIME = 0.4
   PRECFOCK = Fast

 POTCAR:    PAW_PBE As 22Sep2009
 POTCAR:    PAW_PBE N 08Apr2002
 POTCAR:    PAW_PBE B 06Sep2000
|           W    W    AA    RRRRR   N    N  II  N    N   GGGG   !!!           |
|           W    W   A  A   R    R  NN   N  II  NN   N  G    G  !!!           |
|           W    W  A    A  R    R  N N  N  II  N N  N  G       !!!           |
|           W WW W  AAAAAA  RRRRR   N  N N  II  N  N N  G  GGG   !            |
|           WW  WW  A    A  R   R   N   NN  II  N   NN  G    G                |
|           W    W  A    A  R    R  N    N  II  N    N   GGGG   !!!           |
|     You use a magnetic or noncollinear calculation, but did not specify     |
|     the initial magnetic moment with the MAGMOM tag. Note that a            |
|     default of 1 will be used for all atoms. This ferromagnetic setup       |
|     may break the symmetry of the crystal, in particular it may rule        |
|     out finding an antiferromagnetic solution. Thence, we recommend         |
|     setting the initial magnetic moment manually or verifying carefully     |
|     that this magnetic setup is desired.                                    |

   TITEL  = PAW_PBE As 22Sep2009
   POMASS =   74.922; ZVAL   =    5.000    mass and valenz
   ENMAX  =  208.702; ENMIN  =  156.526 eV

   TITEL  = PAW_PBE N 08Apr2002
   POMASS =   14.001; ZVAL   =    5.000    mass and valenz
   ENMAX  =  400.000; ENMIN  =  300.000 eV

   TITEL  = PAW_PBE B 06Sep2000
   POMASS =   10.811; ZVAL   =    3.000    mass and valenz
   ENMAX  =  318.614; ENMIN  =  238.960 eV

 Optimization of the real space projectors (new method)

 maximal supplied QI-value         = 17.95
 optimisation between [QCUT,QGAM] = [ 11.31, 22.80] = [ 35.82,145.56] Ry
 Optimized for a Real-space Cutoff    1.16 Angstroem

   l    n(q)    QCUT    max X(q) W(low)/X(q) W(high)/X(q)  e(spline)
   0      8    11.310   117.213    0.24E-03    0.13E-03    0.91E-07
   0      8    11.310    98.411    0.24E-03    0.13E-03    0.90E-07
   1      7    11.310    10.093    0.47E-03    0.61E-03    0.94E-07
   1      7    11.310     5.228    0.40E-03    0.57E-03    0.92E-07
   2      7    11.310     4.067    0.24E-03    0.11E-03    0.37E-07
 Optimization of the real space projectors (new method)

[...]

   l    n(q)    QCUT    max X(q) W(low)/X(q) W(high)/X(q)  e(spline)
   0      9    11.310    79.467    0.75E-04    0.16E-03    0.36E-06
   0      9    11.310    66.151    0.74E-04    0.16E-03    0.36E-06
   1      8    11.310    17.416    0.35E-03    0.12E-03    0.95E-06
   1      8    11.310    12.382    0.37E-03    0.13E-03    0.98E-06
 Optimization of the real space projectors (new method)

 maximal supplied QI-value         = 22.11
 optimisation between [QCUT,QGAM] = [ 11.28, 22.77] = [ 35.61,145.23] Ry
 Optimized for a Real-space Cutoff    1.16 Angstroem

   l    n(q)    QCUT    max X(q) W(low)/X(q) W(high)/X(q)  e(spline)
   0      8    11.276    53.033    0.48E-03    0.56E-03    0.11E-06
   0      8    11.276    34.740    0.48E-03    0.55E-03    0.11E-06
   1      7    11.276    30.949    0.26E-03    0.19E-04    0.19E-06
   1      7    11.276    19.518    0.24E-03    0.14E-04    0.18E-06
  PAW_PBE As 22Sep2009                  :
  PAW_PBE N 08Apr2002                   :
  PAW_PBE B 06Sep2000                   :

 POSCAR: Species order: X N B
  positions in direct lattice
  velocities in cartesian coordinates
 exchange correlation table for  LEXCH =        8
   RHO(1)=    0.500       N(1)  =     2000
   RHO(2)=  100.500       N(2)  =     4000

 VTST: version 4.1, (05/19/21)

 CHAIN: initializing optimizer

 OPT: Using VASP QUASI-newton optimizer
 CHAIN: Read ICHAIN            0

 POSCAR: Species order: X N B
  positions in direct lattice
  velocities in cartesian coordinates

 ion  position               nearest neighbor table
   1  0.444  0.389  0.375-  87 1.69 138 1.69 100 1.69
   2  0.111  0.056  0.125- 253 1.44 217 1.44 276 1.44
   3  0.611  0.556  0.125- 281 1.44 218 1.44 255 1.44
   4  0.444  0.056  0.125- 219 1.44 256 1.44 278 1.44
   5  0.944  0.556  0.125- 220 1.44 283 1.44 251 1.44
   6  0.778  0.056  0.125- 221 1.44 258 1.44 282 1.44
   7  0.111  0.722  0.625- 259 1.44 284 1.44 222 1.44
   8  0.444  0.722  0.625- 257 1.44 262 1.44 223 1.44
   9  0.278  0.222  0.625- 261 1.44 224 1.44 285 1.44
  10  0.778  0.722  0.625- 286 1.44 225 1.44 263 1.44
  11  0.611  0.222  0.625- 226 1.44 264 1.44 287 1.44
  12  0.944  0.222  0.625- 260 1.44 227 1.44 288 1.44
  13  0.278  0.722  0.125- 280 1.44 266 1.44 228 1.44
  14  0.111  0.222  0.125- 267 1.44 229 1.44 217 1.44
  15  0.444  0.222  0.125- 230 1.44 269 1.44 219 1.44
  16  0.611  0.722  0.125- 218 1.44 231 1.44 268 1.44
  17  0.944  0.722  0.125- 220 1.44 232 1.44 265 1.44
  18  0.778  0.222  0.125- 233 1.44 270 1.44 221 1.44
  19  0.111  0.889  0.625- 272 1.44 234 1.44 222 1.44
  20  0.444  0.889  0.625- 223 1.44 235 1.44 273 1.44
  21  0.278  0.389  0.625- 274 1.44 224 1.44 236 1.44
  22  0.611  0.389  0.625- 237 1.44 226 1.44 277 1.44
  23  0.778  0.889  0.625- 225 1.44 275 1.44 238 1.44
  24  0.944  0.389  0.625- 271 1.44 239 1.44 227 1.44
  25  0.111  0.389  0.125- 279 1.44 229 1.44 240 1.44
  26  0.278  0.889  0.125- 241 1.44 278 1.44 228 1.44
  27  0.611  0.889  0.125- 231 1.44 242 1.44 282 1.44
  28  0.444  0.389  0.125- 230 1.44 243 1.44 281 1.44
  29  0.944  0.889  0.125- 232 1.44 276 1.44 244 1.44
  30  0.778  0.389  0.125- 245 1.44 233 1.44 283 1.44
  31  0.278  0.556  0.625- 257 1.44 236 1.44 246 1.44
  32  0.111  0.056  0.625- 285 1.44 247 1.44 234 1.44
  33  0.611  0.556  0.625- 237 1.44 248 1.44 286 1.44
  34  0.444  0.056  0.625- 249 1.44 287 1.44 235 1.44
  35  0.944  0.556  0.625- 250 1.44 239 1.44 284 1.44
  36  0.111  0.556  0.125- 280 1.44 240 1.44 251 1.44
  37  0.778  0.056  0.625- 252 1.44 288 1.44 238 1.44
  38  0.278  0.056  0.125- 219 1.44 253 1.44 241 1.44
  39  0.444  0.556  0.125- 243 1.44 218 1.44 254 1.44
  40  0.778  0.556  0.125- 245 1.44 255 1.44 220 1.44
  41  0.611  0.056  0.125- 256 1.44 242 1.44 221 1.44
  42  0.444  0.556  0.625- 274 1.44 248 1.44 257 1.44
  43  0.944  0.056  0.125- 217 1.44 244 1.44 258 1.44
  44  0.278  0.722  0.625- 246 1.44 223 1.44 259 1.44
  45  0.111  0.222  0.625- 224 1.44 260 1.44 247 1.44
  46  0.444  0.222  0.625- 261 1.44 226 1.44 249 1.44
  47  0.611  0.722  0.625- 248 1.44 262 1.44 225 1.44
  48  0.944  0.722  0.625- 250 1.44 263 1.44 222 1.44
  49  0.778  0.222  0.625- 264 1.44 227 1.44 252 1.44
  50  0.111  0.722  0.125- 228 1.44 251 1.44 265 1.44
  51  0.444  0.722  0.125- 254 1.44 231 1.44 266 1.44
  52  0.278  0.222  0.125- 230 1.44 267 1.44 253 1.44
  53  0.778  0.722  0.125- 255 1.44 268 1.44 232 1.44
  54  0.611  0.222  0.125- 269 1.44 233 1.44 256 1.44
  55  0.944  0.222  0.125- 229 1.44 270 1.44 258 1.44
  56  0.111  0.389  0.625- 236 1.44 260 1.44 271 1.44
  57  0.278  0.889  0.625- 272 1.44 235 1.44 259 1.44
  58  0.611  0.889  0.625- 262 1.44 273 1.44 238 1.44
  59  0.444  0.389  0.625- 261 1.44 274 1.44 237 1.44
  60  0.944  0.889  0.625- 263 1.44 234 1.44 275 1.44
[...]
 274  0.389  0.445  0.626-  21 1.44  42 1.44  59 1.44
 275  0.889  0.944  0.625-  23 1.44  73 1.44  60 1.44
 276  0.056  0.944  0.125-  29 1.44  61 1.44   2 1.44
 277  0.722  0.445  0.625-  62 1.44  71 1.44  22 1.44
 278  0.389  0.944  0.125-  63 1.44  26 1.44   4 1.44
 279  0.222  0.445  0.125-  25 1.44  65 1.44  64 1.44
 280  0.222  0.611  0.125-  36 1.44  13 1.44  65 1.44
 281  0.556  0.445  0.124-  66 1.44   3 1.44  28 1.44
 282  0.722  0.944  0.125-   6 1.44  67 1.44  27 1.44
 283  0.889  0.444  0.125-  68 1.44   5 1.44  30 1.44
 284  0.056  0.611  0.625-   7 1.44  35 1.44  69 1.44
 285  0.222  0.111  0.625-  32 1.44  70 1.44   9 1.44
 286  0.722  0.611  0.625-  10 1.44  71 1.44  33 1.44
 287  0.556  0.111  0.625-  72 1.44  34 1.44  11 1.44
 288  0.889  0.111  0.625-  37 1.44  73 1.44  12 1.44

  LATTYP: Found a hexagonal cell.
 ALAT       =    14.9363141462
 C/A-ratio  =     0.8932107448

  Lattice vectors:

 A1 = (  14.9363141462,   0.0000000000,   0.0000000000)
 A2 = (  -7.4681570731,  12.9352274895,  -0.0000000000)
 A3 = (   0.0000000000,   0.0000000000,  13.3412762838)

Analysis of symmetry for initial positions (statically):
 Subroutine PRICEL returns:
 Original cell was already a primitive cell.

 Routine SETGRP: Setting up the symmetry group for a
 hexagonal supercell.

 Subroutine GETGRP returns: Found 12 space group operations
 (whereof  1 operations were pure point group operations)
 out of a pool of 24 trial point group operations.

The static configuration has the point symmetry C_1 .
 The point group associated with its full space group is D_3h.

Analysis of symmetry for dynamics (positions and initial velocities):
 Subroutine PRICEL returns:
 Original cell was already a primitive cell.

[...]

The dynamic configuration has the point symmetry C_1 .
 The point group associated with its full space group is D_3h.

Analysis of structural, dynamic, and magnetic symmetry:
 Subroutine PRICEL returns:
 Original cell was already a primitive cell.

 Routine SETGRP: Setting up the symmetry group for a
 hexagonal supercell.

 Subroutine GETGRP returns: Found 12 space group operations
 (whereof  1 operations were pure point group operations)
 out of a pool of 24 trial point group operations.

The overall configuration has the point symmetry C_1 .
 The point group associated with its full space group is D_3h.

 Subroutine INISYM returns: Found 12 space group operations
 (whereof  1 operations are pure point group operations),
 and found     1 'primitive' translations

                                     Primitive cell

  volume of cell :    2577.5962

  direct lattice vectors                    reciprocal lattice vectors
    14.936314146  0.000000000  0.000000000     0.066950922  0.038654133 -0.000000000
    -7.468157073 12.935227490 -0.000000000     0.000000000  0.077308265 -0.000000000
     0.000000000  0.000000000 13.341276284     0.000000000  0.000000000  0.074955348

  length of vectors
    14.936314146 14.936314146 13.341276284     0.077308265  0.077308265  0.074955348

  position of ions in fractional coordinates (direct lattice)
     0.444444444  0.388888889  0.375000000
     0.111102861  0.055538358  0.125145654
     0.611120859  0.555565114  0.125285247
     0.444435497  0.055538358  0.125145654
     0.944455926  0.555564162  0.125115830
     0.777777778  0.055555556  0.125086616
     0.111111111  0.722222222  0.624896135
     0.444435497  0.722230472  0.624854346
     0.277768219  0.222212475  0.624714753
     0.777794975  0.722230472  0.624854346
[...]
   -.155E+01 0.896E+00 -.184E+01   0.123E+01 -.710E+00 0.184E+01   0.830E-01 -.479E-01 0.507E-01   0.230E+00 -.133E+00 -.495E-01
   0.120E+00 -.143E+01 -.200E+01   -.295E+00 0.120E+01 0.200E+01   0.867E-01 0.721E-01 0.313E-01   0.788E-01 0.154E+00 -.383E-01
   0.212E+01 0.200E+01 0.161E+01   -.161E+01 -.111E+01 -.124E+01   -.512E-01 -.159E+00 0.661E-01   -.465E+00 -.747E+00 -.459E+00
   -.120E+00 -.143E+01 -.200E+01   0.295E+00 0.120E+01 0.200E+01   -.867E-01 0.721E-01 0.313E-01   -.788E-01 0.154E+00 -.383E-01
   0.452E+00 0.481E+00 -.298E+01   -.367E+00 -.460E+00 0.297E+01   -.342E-01 0.256E-02 0.159E-01   -.470E-01 -.232E-01 -.694E-02
   -.358E+00 0.434E+00 0.299E+01   0.367E+00 -.460E+00 -.297E+01   0.342E-01 0.256E-02 -.159E-01   -.470E-01 0.232E-01 -.693E-02
   -.131E-04 0.689E-04 -.205E+01   0.296E-10 -.881E-11 0.204E+01   -.336E-22 0.250E-17 0.148E-01   -.112E-05 -.832E-05 -.350E-02
   -.155E-04 -.126E+01 0.194E+01   0.372E-11 0.142E+01 -.184E+01   0.247E-16 0.959E-01 -.507E-01   0.212E-05 -.266E+00 -.495E-01
   -.122E+01 0.566E+00 -.743E+00   0.161E+01 -.111E+01 0.124E+01   0.512E-01 -.159E+00 -.661E-01   -.465E+00 0.747E+00 -.459E+00
   0.110E+01 0.633E+00 0.194E+01   -.123E+01 -.710E+00 -.184E+01   -.830E-01 -.479E-01 -.507E-01   0.230E+00 0.133E+00 -.495E-01
   -.158E+00 -.415E+00 0.209E+01   0.185E+00 0.423E+00 -.207E+01   -.643E-01 0.237E-01 -.120E-01   0.448E-01 -.339E-01 -.893E-02
   -.212E+01 0.200E+01 0.161E+01   0.161E+01 -.111E+01 -.124E+01   0.512E-01 -.159E+00 0.661E-01   0.465E+00 -.747E+00 -.459E+00
   0.158E+00 -.415E+00 0.209E+01   -.185E+00 0.423E+00 -.207E+01   0.643E-01 0.237E-01 -.120E-01   -.448E-01 -.339E-01 -.893E-02
   -.642E+00 0.151E+00 -.298E+01   0.582E+00 -.880E-01 0.297E+01   0.149E-01 -.309E-01 0.159E-01   0.436E-01 -.291E-01 -.692E-02
   -.108E+01 -.627E+00 -.628E+00   0.690E+00 0.398E+00 0.658E+00   0.134E+00 0.774E-01 0.492E-01   0.248E+00 0.143E+00 -.851E-01
   0.676E+00 -.284E+01 0.161E+01   -.153E+00 0.195E+01 -.124E+01   -.112E+00 0.124E+00 0.661E-01   -.415E+00 0.776E+00 -.459E+00
   -.497E-04 0.125E+01 -.628E+00   0.161E-11 -.796E+00 0.658E+00   -.441E-16 -.155E+00 0.492E-01   -.169E-05 -.286E+00 -.851E-01
   0.642E+00 0.150E+00 -.298E+01   -.582E+00 -.880E-01 0.297E+01   -.149E-01 -.309E-01 0.159E-01   -.436E-01 -.291E-01 -.692E-02
   0.384E+00 0.300E+00 -.208E+01   -.274E+00 -.372E+00 0.207E+01   -.527E-01 0.438E-01 0.120E-01   -.518E-01 0.219E-01 -.893E-02
   -.714E-04 -.369E-03 0.310E+01   -.100E-10 -.646E-11 -.309E+01   -.544E-20 -.265E-17 -.156E-01   0.457E-05 0.898E-05 -.251E-02
   -.112E+01 0.324E+00 0.207E+01   0.119E+01 -.346E+00 -.200E+01   0.191E-01 -.111E+00 -.313E-01   -.941E-01 0.145E+00 -.382E-01
   0.120E+00 -.134E+01 -.743E+00   0.153E+00 0.195E+01 0.124E+01   0.112E+00 0.124E+00 -.661E-01   -.415E+00 -.776E+00 -.459E+00
   0.112E+01 0.324E+00 0.207E+01   -.119E+01 -.346E+00 -.200E+01   -.191E-01 -.111E+00 -.313E-01   0.941E-01 0.145E+00 -.382E-01
   0.596E+00 -.344E+00 0.790E+00   -.690E+00 0.398E+00 -.658E+00   -.134E+00 0.774E-01 -.492E-01   0.248E+00 -.143E+00 -.851E-01
   -.281E+00 0.344E+00 0.209E+01   0.274E+00 -.372E+00 -.207E+01   0.527E-01 0.438E-01 -.120E-01   -.518E-01 -.219E-01 -.892E-02
   -.118E+01 0.821E+00 -.200E+01   0.894E+00 -.856E+00 0.200E+01   0.106E+00 0.390E-01 0.313E-01   0.173E+00 -.880E-02 -.382E-01
   -.191E+00 -.631E+00 -.298E+01   0.215E+00 0.548E+00 0.297E+01   -.193E-01 0.283E-01 0.159E-01   -.340E-02 0.524E-01 -.694E-02
   -.452E+00 0.182E+00 -.208E+01   0.459E+00 -.514E-01 0.207E+01   -.116E-01 -.675E-01 0.120E-01   0.697E-02 -.558E-01 -.892E-02
   0.319E-04 0.417E-03 0.499E+01   -.276E-11 0.236E-10 -.254E+01   0.788E-21 -.387E-16 -.228E+00   -.443E-04 -.462E-05 -.214E+01
   0.655E+00 -.378E+00 -.279E+01   -.689E+00 0.398E+00 0.279E+01   0.319E-01 -.184E-01 0.811E-02   -.201E-02 0.116E-02 -.645E-02
[...]
   0.240E+00 -.138E+00 -.209E+01   -.249E+00 0.144E+00 0.209E+01   0.346E-02 -.200E-02 -.101E-02   0.557E-02 -.322E-02 -.373E-02
   0.139E+00 -.575E+00 0.249E+01   -.134E+00 0.575E+00 -.248E+01   0.675E-02 0.313E-01 0.960E-03   -.122E-01 -.370E-01 -.684E-02
   0.167E+01 0.722E+00 -.207E+01   -.136E+01 -.649E+00 0.213E+01   -.862E-01 -.245E-01 -.214E-02   -.219E+00 -.498E-01 -.625E-01
   -.139E+00 -.575E+00 0.249E+01   0.134E+00 0.575E+00 -.248E+01   -.675E-02 0.313E-01 0.960E-03   0.122E-01 -.370E-01 -.684E-02
   -.125E+01 0.633E+00 0.219E+01   0.136E+01 -.649E+00 -.213E+01   0.862E-01 -.245E-01 0.214E-02   -.219E+00 0.498E-01 -.625E-01
   -.637E+00 0.368E+00 0.258E+01   0.637E+00 -.368E+00 -.257E+01   0.442E-01 -.255E-01 0.112E-02   -.519E-01 0.300E-01 -.741E-02
   0.104E+01 0.597E+00 0.219E+01   -.157E+01 -.907E+00 -.151E+01   -.104E+00 -.601E-01 -.187E-01   0.617E+00 0.356E+00 -.655E+00
   0.115E-03 0.164E+00 0.186E+01   0.914E-11 -.167E+00 -.186E+01   -.441E-17 -.162E-01 0.118E-02   0.216E-06 0.206E-01 -.331E-02
   0.428E+00 0.408E+00 0.249E+01   -.431E+00 -.404E+00 -.248E+01   -.305E-01 -.981E-02 0.960E-03   0.381E-01 0.787E-02 -.685E-02
   0.120E-03 0.215E+00 -.260E+01   0.141E-10 -.194E+00 0.260E+01   -.306E-17 -.110E-01 -.115E-02   0.938E-06 -.785E-02 -.200E-02
   -.208E+00 -.180E+01 -.207E+01   0.118E+00 0.150E+01 0.213E+01   0.219E-01 0.869E-01 -.214E-02   0.665E-01 0.215E+00 -.626E-01
   0.146E+01 0.108E+01 -.207E+01   -.124E+01 -.853E+00 0.213E+01   -.643E-01 -.624E-01 -.214E-02   -.153E+00 -.165E+00 -.626E-01
   0.410E+00 -.863E+00 -.191E+01   -.304E+00 0.755E+00 0.193E+01   -.350E-01 0.374E-01 -.291E-02   -.679E-01 0.675E-01 -.204E-01
   -.178E+00 -.103E+00 -.186E+01   0.145E+00 0.835E-01 0.186E+01   0.140E-01 0.809E-02 -.118E-02   0.179E-01 0.103E-01 -.331E-02
   0.530E-03 0.683E-03 -.261E+02   0.421E-12 -.377E-12 0.103E-12   0.763E-15 -.380E-14 0.672E-16   -.163E-04 0.263E-04 0.107E+02

 POSITION                                       TOTAL-FORCE (eV/Angst)
      3.73408      5.03037      5.00298        -0.000000      0.000000     -0.000000
      1.24470      0.71838      1.67007         0.000270      0.000738      0.000289
      4.97901      7.18625      1.66811        -0.000645     -0.000069     -0.004753
      6.22345      0.71838      1.67007        -0.000270      0.000738      0.000289
      9.95767      7.18636      1.66962        -0.000789     -0.000475      0.000711
     11.20224      0.71862      1.66863        -0.000000     -0.000000     -0.000498
     -3.73408      9.34211      8.33658        -0.000000     -0.000000     -0.000342
      1.24447      9.34222      8.33588         0.000504     -0.000602     -0.000289
      2.48949      2.87428      8.33785        -0.000263      0.000593      0.004753
      6.22368      9.34222      8.33588        -0.000504     -0.000602     -0.000289
      7.46798      2.87460      8.33581         0.000594     -0.000343      0.000185
     12.44694      2.87458      8.33715         0.000405     -0.000127     -0.000225
     -1.24486      9.34216      1.66962         0.000806     -0.000446      0.000711
      0.00018      2.87460      1.67015        -0.000594     -0.000343     -0.000185
      4.97867      2.87428      1.66811         0.000263      0.000593     -0.004753
      3.73408      9.34190      1.67015         0.000000      0.000686     -0.000185
      8.71302      9.34216      1.66962        -0.000806     -0.000446      0.000711
      9.95753      2.87458      1.66881        -0.000405     -0.000127      0.000225
     -4.97873     11.49781      8.33633        -0.000017      0.000921     -0.000711
     -0.00010     11.49792      8.33702         0.000323      0.000187     -0.000675
      1.24456      5.03056      8.33785         0.000382     -0.000525      0.004753
      6.22360      5.03056      8.33785        -0.000382     -0.000525      0.004753
      4.97884     11.49792      8.33715        -0.000313     -0.000288     -0.000225
     11.20224      5.03048      8.33702        -0.000000     -0.000373     -0.000675
     -1.24490      5.03050      1.67007         0.000774     -0.000135      0.000289
     -2.48942     11.49781      1.66962         0.000017      0.000921      0.000711
      2.48932     11.49792      1.66881         0.000313     -0.000288      0.000225
      3.73408      5.03037      1.65566        -0.000000     -0.000000     -0.007781
      7.46826     11.49792      1.66894        -0.000323      0.000187      0.000675
      8.71306      5.03050      1.67007        -0.000774     -0.000135      0.000289
     -0.00026      7.18639      8.33495         0.000886     -0.000511      0.000951
      1.24470      0.71838      8.33588         0.000270      0.000738     -0.000289
      4.97901      7.18625      8.33785        -0.000645     -0.000069      0.004753
      6.22345      0.71838      8.33588        -0.000270      0.000738     -0.000289
      9.95767      7.18636      8.33633        -0.000789     -0.000475     -0.000711
     -2.48951      7.18636      1.66962         0.000789     -0.000475      0.000711
     11.20224      0.71862      8.33733        -0.000000      0.000000      0.000498
      3.73408      0.71832      1.67100         0.000000      0.001023     -0.000951
      2.48915      7.18625      1.66811         0.000645     -0.000069     -0.004753
      7.46842      7.18639      1.67100        -0.000886     -0.000511     -0.000951
      8.71277      0.71859      1.66881        -0.000093      0.000415      0.000225
      2.48915      7.18625      8.33785         0.000645     -0.000069      0.004753
     13.69170      0.71859      1.66881         0.000093      0.000415      0.000225
     -1.24486      9.34216      8.33633         0.000806     -0.000446     -0.000711
      0.00018      2.87460      8.33581        -0.000594     -0.000343      0.000185
      4.97867      2.87428      8.33785         0.000263      0.000593      0.004753
      3.73408      9.34190      8.33581         0.000000      0.000686      0.000185
      8.71302      9.34216      8.33633        -0.000806     -0.000446     -0.000711
      9.95753      2.87458      8.33715        -0.000405     -0.000127     -0.000225
     -3.73408      9.34211      1.66937        -0.000000      0.000000      0.000342
      1.24447      9.34222      1.67007         0.000504     -0.000602      0.000289
      2.48949      2.87428      1.66811        -0.000263      0.000593     -0.004753
      6.22368      9.34222      1.67007        -0.000504     -0.000602      0.000289
      7.46798      2.87460      1.67015         0.000594     -0.000343     -0.000185
     12.44694      2.87458      1.66881         0.000405     -0.000127      0.000225
     -1.24490      5.03050      8.33588         0.000774     -0.000135     -0.000289
     -2.48942     11.49781      8.33633         0.000017      0.000921     -0.000711
      2.48932     11.49792      8.33715         0.000313     -0.000288     -0.000225
      3.73408      5.03037      8.35030        -0.000000      0.000000      0.007781
      7.46826     11.49792      8.33702        -0.000323      0.000187     -0.000675
[...]
      2.48656      5.75062      8.35422        -0.001854      0.001070      0.004785
      6.22351     12.21658      8.33969         0.000277     -0.000160     -0.000355
     -6.22350     12.21562      1.66656         0.000264     -0.000512      0.000837
      7.47056      5.74985      8.34089         0.000313      0.000176      0.001868
     -1.24466     12.21562      1.66656        -0.000264     -0.000512      0.000837
     -0.00240      5.74985      1.66507        -0.000313      0.000176     -0.001868
     -1.24604      7.90564      1.66687        -0.001175      0.000678      0.000284
      4.98159      5.75062      1.65174         0.001854      0.001070     -0.004785
      3.73408     12.21693      1.66634        -0.000000     -0.000461     -0.000148
      9.95841      5.74945      1.66656         0.000312      0.000484      0.000837
     -3.73408      7.90527      8.33921         0.000000      0.000510     -0.000843
      2.48893      1.43474      8.34089        -0.000004     -0.000359      0.001868
      6.22541      7.90651      8.34089         0.000309      0.000183      0.001868
      7.46885      1.43632      8.33971        -0.000405      0.000061     -0.000102
     12.44665      1.43709      8.33962         0.000400      0.000231      0.000148
    total drift:                                0.000514      0.000710    -15.464696

  FREE ENERGIE OF THE ION-ELECTRON SYSTEM (eV)
  free  energy   TOTEN  =     -3070.90528868 eV

  energy  without entropy=    -3070.90528868  energy(sigma->0) =    -3070.90528868

 d Force = 0.2686334E-03[ 0.221E-03, 0.317E-03]  d Energy =-0.1102961E-03 0.379E-03
 d Force =-0.1627809E-01[-0.197E-01,-0.129E-01]  d Ewald  =-0.1627681E-01-0.128E-05

 stress matrix after NEB project (eV)
     28.47065      0.00000      0.00000
      0.00000     28.47065     -0.00000
      0.00000     -0.00000     -7.00726
  FORCES: max atom, RMS     0.007781    0.001974
  FORCE total and by dimension    0.033498    0.007781
  Stress total and by dimension   40.868785   28.470650
 Quasi-Newton relaxation of ions (Broydens 2nd method)
  g(Force)  = 0.325E-04   g(Stress)= 0.000E+00

 retain information from N=  3 steps
 eigenvalues of (default step * inverse Hessian matrix)
  average eigenvalue of G=   4.3227
 eigenvalue spectrum of G is  1.1963  5.8860  5.8860

 reached required accuracy - stopping structural energy minimisation
 writing wavefunctions

 total charge

[...]

 magnetization (x)

# of ion       s       p       d       tot
    1       -0.096  -0.119  -0.061  -0.275
    2       -0.000   0.000   0.000   0.000
    3       -0.000   0.000   0.000   0.000
    4       -0.000   0.000   0.000   0.000
    5        0.000   0.000   0.000   0.000
    6       -0.000   0.000   0.000   0.000
    7        0.000   0.000   0.000   0.000
    8       -0.000   0.000   0.000   0.000
    9       -0.000   0.000   0.000   0.000
   10       -0.000   0.000   0.000   0.000
   11       -0.000   0.000   0.000   0.000
   12        0.000   0.000   0.000   0.000
   13        0.000   0.000   0.000   0.000
   14       -0.000   0.000   0.000   0.000
   15       -0.000   0.000   0.000   0.000
   16       -0.000   0.000   0.000   0.000
   17        0.000   0.000   0.000   0.000
   18        0.000   0.000   0.000   0.000
   19        0.000   0.000   0.000   0.000
   20        0.000   0.000   0.000   0.000
   21       -0.000   0.000   0.000   0.000
   22       -0.000   0.000   0.000   0.000
   23        0.000   0.000   0.000   0.000
   24        0.000   0.000   0.000   0.000
   25       -0.000   0.000   0.000   0.000
   26        0.000   0.000   0.000   0.000
   27        0.000   0.000   0.000   0.000
   28       -0.002  -0.002   0.000  -0.003
   29        0.000   0.000   0.000   0.000
   30       -0.000   0.000   0.000   0.000
   31       -0.000   0.000   0.000   0.000
   32       -0.000   0.000   0.000   0.000
   33       -0.000   0.000   0.000   0.000
   34       -0.000   0.000   0.000   0.000
   35        0.000   0.000   0.000   0.000
   36        0.000   0.000   0.000   0.000
   37       -0.000   0.000   0.000   0.000
   38       -0.000   0.000   0.000   0.000
   39       -0.000   0.000   0.000   0.000
   40       -0.000   0.000   0.000   0.000
   41        0.000   0.000   0.000   0.000
   42       -0.000   0.000   0.000   0.000
   43        0.000   0.000   0.000   0.000
   44        0.000   0.000   0.000   0.000
   45       -0.000   0.000   0.000   0.000
   46       -0.000   0.000   0.000   0.000
   47       -0.000   0.000   0.000   0.000
   48        0.000   0.000   0.000   0.000
   49        0.000   0.000   0.000   0.000
   50        0.000   0.000   0.000   0.000
   51       -0.000   0.000   0.000   0.000
   52       -0.000   0.000   0.000   0.000
   53       -0.000   0.000   0.000   0.000
   54       -0.000   0.000   0.000   0.000
   55        0.000   0.000   0.000   0.000
   56       -0.000   0.000   0.000   0.000
   57        0.000   0.000   0.000   0.000
   58        0.000   0.000   0.000   0.000
   59       -0.002  -0.002   0.000  -0.003
   60        0.000   0.000   0.000   0.000
[...]
  274       -0.000  -0.000   0.000  -0.000
  275       -0.000  -0.000   0.000  -0.000
  276       -0.000  -0.000   0.000  -0.000
  277       -0.000  -0.000   0.000  -0.000
  278       -0.000  -0.000   0.000  -0.000
  279       -0.000  -0.000   0.000  -0.000
  280       -0.000  -0.000   0.000  -0.000
  281       -0.000  -0.000   0.000  -0.000
  282       -0.000  -0.000   0.000  -0.000
  283       -0.000  -0.000   0.000  -0.000
  284       -0.000  -0.000   0.000  -0.000
  285       -0.000  -0.000   0.000  -0.000
  286       -0.000  -0.000   0.000  -0.000
  287       -0.000  -0.000   0.000  -0.000
  288       -0.000  -0.000   0.000  -0.000
tot         -0.171  -0.382  -0.061  -0.613