 vasp.6.4.2 20Jul23 (build Nov 06 2023 14:18:49) gamma-only

 executed on             LinuxIFC date 2024.10.05  07:07:59

 INCAR:
   NELECT = 1148
   NCORE = 24
   LREAL = Auto
   ISTART = 0
   ICHARG = 2
   LORBIT = 11
   ENCUT = 500
   EDIFF = 1E-4
   NELM = 60
   NELMIN = 4
   IBRION = 1
   NSW = 900
   POTIM = 0.3
   ISIF = 2
   EDIFFG = -1E-2
   ADDGRID = .TRUE.
   ISMEAR = 0
   SIGMA = 0.01
   IVDW = 11
   VDW_S8 = 0.109
   VDW_SR = 1.129
   ISPIN = 2
   GGA = PE
   LHFCALC = .TRUE.
   AEXX = 0.32
   HFSCREEN = 0.2
   ALGO = Normal
   TIME = 0.4
   PRECFOCK = Fast

 POTCAR:    PAW_PBE N 08Apr2002
 POTCAR:    PAW_PBE B 06Sep2000
|           W    W    AA    RRRRR   N    N  II  N    N   GGGG   !!!           |
|           W    W   A  A   R    R  NN   N  II  NN   N  G    G  !!!           |
|           W    W  A    A  R    R  N N  N  II  N N  N  G       !!!           |
|           W WW W  AAAAAA  RRRRR   N  N N  II  N  N N  G  GGG   !            |
|           WW  WW  A    A  R   R   N   NN  II  N   NN  G    G                |
|           W    W  A    A  R    R  N    N  II  N    N   GGGG   !!!           |
|     You use a magnetic or noncollinear calculation, but did not specify     |
|     the initial magnetic moment with the MAGMOM tag. Note that a            |
|     default of 1 will be used for all atoms. This ferromagnetic setup       |
|     may break the symmetry of the crystal, in particular it may rule        |
|     out finding an antiferromagnetic solution. Thence, we recommend         |
|     setting the initial magnetic moment manually or verifying carefully     |
|     that this magnetic setup is desired.                                    |

   TITEL  = PAW_PBE N 08Apr2002
   POMASS =   14.001; ZVAL   =    5.000    mass and valenz
   ENMAX  =  400.000; ENMIN  =  300.000 eV

   TITEL  = PAW_PBE B 06Sep2000
   POMASS =   10.811; ZVAL   =    3.000    mass and valenz
   ENMAX  =  318.614; ENMIN  =  238.960 eV

 Optimization of the real space projectors (new method)

 maximal supplied QI-value         = 25.13
 optimisation between [QCUT,QGAM] = [ 11.31, 22.87] = [ 35.82,146.48] Ry
 Optimized for a Real-space Cutoff    1.27 Angstroem

   l    n(q)    QCUT    max X(q) W(low)/X(q) W(high)/X(q)  e(spline)
   0      9    11.310    79.467    0.75E-04    0.16E-03    0.36E-06
   0      9    11.310    66.151    0.74E-04    0.16E-03    0.36E-06
   1      8    11.310    17.416    0.35E-03    0.12E-03    0.95E-06
   1      8    11.310    12.382    0.37E-03    0.13E-03    0.98E-06
 Optimization of the real space projectors (new method)

 maximal supplied QI-value         = 22.11
 optimisation between [QCUT,QGAM] = [ 11.28, 22.77] = [ 35.61,145.23] Ry
 Optimized for a Real-space Cutoff    1.16 Angstroem

   l    n(q)    QCUT    max X(q) W(low)/X(q) W(high)/X(q)  e(spline)
   0      8    11.276    53.033    0.48E-03    0.56E-03    0.11E-06
   0      8    11.276    34.740    0.48E-03    0.55E-03    0.11E-06
   1      7    11.276    30.949    0.26E-03    0.19E-04    0.19E-06
   1      7    11.276    19.518    0.24E-03    0.14E-04    0.18E-06
  PAW_PBE N 08Apr2002                   :
  PAW_PBE B 06Sep2000                   :

 POSCAR: Species order:  N B
  positions in direct lattice
 exchange correlation table for  LEXCH =        8
   RHO(1)=    0.500       N(1)  =     2000
   RHO(2)=  100.500       N(2)  =     4000

 VTST: version 4.1, (05/19/21)

 CHAIN: initializing optimizer

 OPT: Using VASP QUASI-newton optimizer
 CHAIN: Read ICHAIN            0

 POSCAR: Species order:  N B
  positions in direct lattice

 ion  position               nearest neighbor table
   1  0.111  0.056  0.125- 252 1.44 216 1.44 275 1.44
   2  0.611  0.556  0.125- 254 1.44 217 1.44 280 1.44
   3  0.444  0.056  0.125- 218 1.44 255 1.44 277 1.44
   4  0.944  0.556  0.125- 219 1.44 250 1.44 282 1.44
   5  0.778  0.056  0.125- 257 1.44 220 1.44 281 1.44
   6  0.111  0.722  0.625- 258 1.44 283 1.44 221 1.44
   7  0.444  0.722  0.625- 256 1.44 222 1.44 261 1.44
   8  0.278  0.222  0.625- 260 1.44 284 1.44 223 1.44
   9  0.778  0.722  0.625- 262 1.44 285 1.44 224 1.44
  10  0.611  0.222  0.625- 263 1.44 286 1.44 225 1.44
  11  0.944  0.222  0.625- 287 1.44 226 1.44 259 1.44
  12  0.278  0.722  0.125- 265 1.44 279 1.44 227 1.44
  13  0.111  0.222  0.125- 266 1.44 216 1.44 228 1.44
  14  0.444  0.222  0.125- 218 1.44 229 1.44 268 1.44
  15  0.611  0.722  0.125- 267 1.44 217 1.44 230 1.44
  16  0.944  0.722  0.125- 219 1.44 231 1.44 264 1.44
  17  0.778  0.222  0.125- 269 1.44 220 1.44 232 1.44
  18  0.111  0.889  0.625- 271 1.44 221 1.44 233 1.44
  19  0.444  0.889  0.625- 222 1.44 234 1.44 272 1.44
  20  0.278  0.389  0.625- 273 1.44 223 1.44 235 1.44
  21  0.611  0.389  0.625- 276 1.44 225 1.44 236 1.44
  22  0.778  0.889  0.625- 274 1.44 224 1.44 237 1.44
  23  0.944  0.389  0.625- 226 1.44 238 1.44 270 1.44
  24  0.111  0.389  0.125- 278 1.44 228 1.44 239 1.44
  25  0.278  0.889  0.125- 277 1.44 227 1.44 240 1.44
  26  0.611  0.889  0.125- 281 1.44 230 1.44 241 1.44
  27  0.444  0.389  0.125- 229 1.44 242 1.44 280 1.44
  28  0.944  0.889  0.125- 231 1.44 243 1.44 275 1.44
  29  0.778  0.389  0.125- 282 1.44 232 1.44 244 1.44
  30  0.278  0.556  0.625- 256 1.44 245 1.44 235 1.44
  31  0.111  0.056  0.625- 284 1.44 246 1.44 233 1.44
  32  0.611  0.556  0.625- 285 1.44 247 1.44 236 1.44
  33  0.444  0.056  0.625- 248 1.44 286 1.44 234 1.44
  34  0.944  0.556  0.625- 249 1.44 283 1.44 238 1.44
  35  0.111  0.556  0.125- 279 1.44 250 1.44 239 1.44
  36  0.778  0.056  0.625- 287 1.44 251 1.44 237 1.44
  37  0.278  0.056  0.125- 218 1.44 252 1.44 240 1.44
  38  0.444  0.556  0.125- 253 1.44 217 1.44 242 1.44
  39  0.778  0.556  0.125- 219 1.44 254 1.44 244 1.44
  40  0.611  0.056  0.125- 220 1.44 255 1.44 241 1.44
  41  0.444  0.556  0.625- 256 1.44 247 1.44 273 1.44
  42  0.944  0.056  0.125- 257 1.44 216 1.44 243 1.44
  43  0.278  0.722  0.625- 222 1.44 245 1.44 258 1.44
  44  0.111  0.222  0.625- 223 1.44 246 1.44 259 1.44
  45  0.444  0.222  0.625- 248 1.44 260 1.44 225 1.44
  46  0.611  0.722  0.625- 224 1.44 247 1.44 261 1.44
  47  0.944  0.722  0.625- 249 1.44 262 1.44 221 1.44
  48  0.778  0.222  0.625- 226 1.44 251 1.44 263 1.44
  49  0.111  0.722  0.125- 227 1.44 250 1.44 264 1.44
  50  0.444  0.722  0.125- 253 1.44 265 1.44 230 1.44
  51  0.278  0.222  0.125- 229 1.44 252 1.44 266 1.44
  52  0.778  0.722  0.125- 231 1.44 254 1.44 267 1.44
  53  0.611  0.222  0.125- 232 1.44 255 1.44 268 1.44
  54  0.944  0.222  0.125- 257 1.44 269 1.44 228 1.44
  55  0.111  0.389  0.625- 235 1.44 259 1.44 270 1.44
  56  0.278  0.889  0.625- 234 1.44 258 1.44 271 1.44
  57  0.611  0.889  0.625- 237 1.44 261 1.44 272 1.44
  58  0.444  0.389  0.625- 260 1.44 273 1.44 236 1.44
  59  0.944  0.889  0.625- 262 1.44 274 1.44 233 1.44
  60  0.111  0.889  0.125- 240 1.44 264 1.44 275 1.44
[...]
 273  0.389  0.444  0.625-  20 1.44  58 1.44  41 1.44
 274  0.889  0.944  0.625-  22 1.44  59 1.44  72 1.44
 275  0.056  0.944  0.125-  60 1.44  28 1.44   1 1.44
 276  0.722  0.444  0.625-  21 1.44  61 1.44  70 1.44
 277  0.389  0.944  0.125-  25 1.44  62 1.44   3 1.44
 278  0.222  0.444  0.125-  24 1.44  63 1.44  64 1.44
 279  0.222  0.611  0.125-  35 1.44  12 1.44  64 1.44
 280  0.556  0.444  0.125-  65 1.44  27 1.44   2 1.44
 281  0.722  0.944  0.125-  26 1.44  66 1.44   5 1.44
 282  0.889  0.444  0.125-  29 1.44  67 1.44   4 1.44
 283  0.056  0.611  0.625-   6 1.44  68 1.44  34 1.44
 284  0.222  0.111  0.625-  31 1.44   8 1.44  69 1.44
 285  0.722  0.611  0.625-  32 1.44   9 1.44  70 1.44
 286  0.556  0.111  0.625-  10 1.44  71 1.44  33 1.44
 287  0.889  0.111  0.625-  36 1.44  11 1.44  72 1.44

  LATTYP: Found a hexagonal cell.
 ALAT       =    14.9363141462
 C/A-ratio  =     0.8932107448

  Lattice vectors:

 A1 = (  14.9363141462,   0.0000000000,   0.0000000000)
 A2 = (  -7.4681570731,  12.9352274895,  -0.0000000000)
 A3 = (   0.0000000000,   0.0000000000,  13.3412762838)

Analysis of symmetry for initial positions (statically):
 Subroutine PRICEL returns:
 Original cell was already a primitive cell.

 Routine SETGRP: Setting up the symmetry group for a
 hexagonal supercell.

 Subroutine GETGRP returns: Found 12 space group operations
 (whereof  1 operations were pure point group operations)
 out of a pool of 24 trial point group operations.

The static configuration has the point symmetry C_1 .
 The point group associated with its full space group is D_3h.

Analysis of symmetry for dynamics (positions and initial velocities):
 Subroutine PRICEL returns:
 Original cell was already a primitive cell.

[...]

The dynamic configuration has the point symmetry C_1 .
 The point group associated with its full space group is D_3h.

Analysis of structural, dynamic, and magnetic symmetry:
 Subroutine PRICEL returns:
 Original cell was already a primitive cell.

 Routine SETGRP: Setting up the symmetry group for a
 hexagonal supercell.

 Subroutine GETGRP returns: Found 12 space group operations
 (whereof  1 operations were pure point group operations)
 out of a pool of 24 trial point group operations.

The overall configuration has the point symmetry C_1 .
 The point group associated with its full space group is D_3h.

 Subroutine INISYM returns: Found 12 space group operations
 (whereof  1 operations are pure point group operations),
 and found     1 'primitive' translations

                                     Primitive cell

  volume of cell :    2577.5962

  direct lattice vectors                    reciprocal lattice vectors
    14.936314146  0.000000000  0.000000000     0.066950922  0.038654133 -0.000000000
    -7.468157073 12.935227490 -0.000000000     0.000000000  0.077308265 -0.000000000
     0.000000000  0.000000000 13.341276284     0.000000000  0.000000000  0.074955348

  length of vectors
    14.936314146 14.936314146 13.341276284     0.077308265  0.077308265  0.074955348

  position of ions in fractional coordinates (direct lattice)
     0.111111111  0.055555556  0.125000000
     0.611111111  0.555555556  0.125000000
     0.444444444  0.055555556  0.125000000
     0.944444444  0.555555556  0.125000000
     0.777777778  0.055555556  0.125000000
     0.111111111  0.722222222  0.625000000
     0.444444444  0.722222222  0.625000000
     0.277777778  0.222222222  0.625000000
     0.777777778  0.722222222  0.625000000
     0.611111111  0.222222222  0.625000000
     0.944444444  0.222222222  0.625000000
     0.277777778  0.722222222  0.125000000
     0.111111111  0.222222222  0.125000000
     0.444444444  0.222222222  0.125000000
     0.611111111  0.722222222  0.125000000
     0.944444444  0.722222222  0.125000000
     0.777777778  0.222222222  0.125000000
     0.111111111  0.888888889  0.625000000
     0.444444444  0.888888889  0.625000000
     0.277777778  0.388888889  0.625000000
     0.611111111  0.388888889  0.625000000
     0.777777778  0.888888889  0.625000000
     0.944444444  0.388888889  0.625000000
     0.111111111  0.388888889  0.125000000
     0.277777778  0.888888889  0.125000000
     0.611111111  0.888888889  0.125000000
     0.444444444  0.388888889  0.125000000
     0.944444444  0.888888889  0.125000000
[...]
   -.224E+01 -.345E+01 0.240E+01   0.218E+01 0.336E+01 -.237E+01   0.446E-01 0.452E-01 0.117E-01   -.252E-03 0.531E-03 0.265E-02
   0.394E+01 0.709E+01 0.974E+01   -.386E+01 -.711E+01 -.100E+02   -.226E-01 -.236E-01 0.489E-01   -.660E-03 -.208E-03 0.114E-01
   0.226E+01 -.341E+01 0.237E+01   -.218E+01 0.336E+01 -.237E+01   -.446E-01 0.452E-01 0.117E-01   0.322E-03 0.496E-03 0.259E-02
   0.148E+01 0.623E+00 0.134E+01   -.150E+01 -.627E+00 -.140E+01   -.253E-01 0.843E-03 0.210E-01   -.116E-03 -.855E-03 0.190E-02
   -.156E+01 0.633E+00 -.139E+01   0.150E+01 -.627E+00 0.140E+01   0.253E-01 0.843E-03 -.210E-01   0.305E-03 -.823E-03 -.186E-02
   -.118E-01 -.673E-02 0.481E+00   0.212E-10 -.613E-11 -.509E+00   -.181E-18 0.384E-17 0.236E-01   -.605E-04 -.348E-04 0.847E-03
   0.263E-01 -.524E+01 -.378E+01   0.198E-10 0.516E+01 0.375E+01   0.155E-16 0.554E-01 -.245E-01   0.648E-04 0.912E-03 -.590E-02
   -.382E+01 0.720E+01 -.100E+02   0.386E+01 -.711E+01 0.100E+02   0.226E-01 -.236E-01 -.489E-01   0.397E-03 -.247E-03 -.112E-01
   0.448E+01 0.259E+01 -.360E+01   -.446E+01 -.258E+01 0.375E+01   -.480E-01 -.277E-01 -.245E-01   -.749E-03 -.433E-03 -.606E-02
   0.154E+01 -.900E+00 -.940E+00   -.149E+01 0.897E+00 0.961E+00   -.388E-01 0.163E-01 -.232E-01   -.825E-03 -.196E-05 -.570E-03
   -.382E+01 0.720E+01 0.100E+02   0.386E+01 -.711E+01 -.100E+02   0.226E-01 -.236E-01 0.489E-01   0.396E-03 -.247E-03 0.112E-01
   -.156E+01 -.945E+00 -.954E+00   0.149E+01 0.897E+00 0.961E+00   0.388E-01 0.163E-01 -.232E-01   0.752E-03 0.218E-04 -.631E-03
   -.131E+01 0.102E+01 0.139E+01   0.129E+01 -.984E+00 -.140E+01   0.119E-01 -.224E-01 0.210E-01   0.921E-03 0.286E-03 0.184E-02
   -.475E+01 -.274E+01 0.337E+01   0.465E+01 0.268E+01 -.333E+01   0.670E-01 0.387E-01 0.142E-01   0.398E-03 0.229E-03 0.325E-02
   0.433E+01 -.690E+01 0.100E+02   -.423E+01 0.690E+01 -.100E+02   -.912E-02 0.314E-01 0.489E-01   -.191E-04 0.466E-03 0.112E-01
   0.416E-01 0.543E+01 0.328E+01   -.151E-11 -.537E+01 -.333E+01   -.228E-16 -.773E-01 0.142E-01   -.117E-03 -.378E-03 0.312E-02
   0.128E+01 0.968E+00 0.134E+01   -.129E+01 -.984E+00 -.140E+01   -.119E-01 -.224E-01 0.210E-01   -.800E-03 0.328E-03 0.190E-02
   0.153E+01 -.857E+00 0.920E+00   -.152E+01 0.843E+00 -.961E+00   -.335E-01 0.255E-01 0.232E-01   -.455E-03 0.578E-03 0.573E-03
   -.225E-01 -.133E-01 -.106E+01   -.434E-11 -.644E-11 0.107E+01   0.528E-18 -.198E-17 -.155E-01   0.106E-03 0.619E-04 -.154E-02
   -.182E+01 0.366E+01 -.237E+01   0.182E+01 -.357E+01 0.237E+01   0.168E-01 -.613E-01 -.117E-01   0.591E-03 0.306E-04 -.260E-02
   -.422E+01 -.694E+01 -.101E+02   0.423E+01 0.690E+01 0.100E+02   0.912E-02 0.314E-01 -.489E-01   0.739E-04 0.552E-03 -.112E-01
   0.184E+01 0.358E+01 -.230E+01   -.182E+01 -.357E+01 0.237E+01   -.168E-01 -.613E-01 -.117E-01   -.701E-03 0.113E-03 -.266E-02
   0.472E+01 -.268E+01 -.328E+01   -.465E+01 0.268E+01 0.333E+01   -.670E-01 0.387E-01 -.142E-01   -.386E-03 0.862E-04 -.312E-02
   -.160E+01 -.880E+00 -.954E+00   0.152E+01 0.843E+00 0.961E+00   0.335E-01 0.255E-01 -.232E-01   0.394E-03 0.640E-03 -.631E-03
   -.411E+01 -.215E+00 0.240E+01   0.400E+01 0.204E+00 -.237E+01   0.615E-01 0.161E-01 0.117E-01   0.333E-03 -.485E-03 0.266E-02
   0.229E+00 -.164E+01 0.139E+01   -.206E+00 0.161E+01 -.140E+01   -.134E-01 0.215E-01 0.210E-01   0.707E-03 0.657E-03 0.183E-02
   -.114E-01 0.178E+01 0.936E+00   0.308E-01 -.174E+01 -.961E+00   -.529E-02 -.418E-01 0.232E-01   -.414E-03 -.711E-03 0.570E-03
   0.153E+00 0.890E-01 0.192E+02   -.790E-11 0.246E-10 -.192E+02   -.393E-17 0.150E-18 0.336E-02   -.107E-03 -.636E-04 0.802E-02
   -.225E+00 0.739E-01 0.103E+01   0.190E+00 -.110E+00 -.106E+01   0.157E-01 -.906E-02 0.211E-01   -.329E-03 0.242E-03 0.848E-03
   -.233E+00 -.167E+01 -.139E+01   0.206E+00 0.161E+01 0.140E+01   0.134E-01 0.215E-01 -.210E-01   -.560E-03 0.678E-03 -.186E-02
[...]
   -.374E+00 0.148E+00 -.368E+00   0.354E+00 -.204E+00 0.364E+00   0.449E-03 -.259E-03 -.670E-03   0.144E-03 -.979E-04 0.361E-03
   -.597E+00 -.121E+01 0.792E-01   0.560E+00 0.111E+01 -.809E-01   0.385E-02 0.197E-01 0.471E-03   -.415E-04 0.372E-03 -.767E-03
   0.384E+01 0.673E+00 0.138E+01   -.386E+01 -.635E+00 -.144E+01   -.403E-01 -.505E-02 -.897E-03   -.641E-03 -.364E-03 0.284E-02
   0.580E+00 -.113E+01 0.793E-01   -.560E+00 0.111E+01 -.809E-01   -.385E-02 0.197E-01 0.471E-03   0.907E-04 0.354E-03 -.743E-03
   -.397E+01 0.669E+00 -.145E+01   0.386E+01 -.635E+00 0.144E+01   0.403E-01 -.505E-02 0.897E-03   0.695E-03 -.252E-03 -.276E-02
   -.175E+01 0.100E+01 -.102E+00   0.167E+01 -.962E+00 0.981E-01   0.316E-01 -.183E-01 0.528E-03   0.539E-03 -.255E-03 -.125E-02
   0.373E+01 0.215E+01 -.785E+01   -.359E+01 -.207E+01 0.798E+01   0.199E-01 0.115E-01 0.109E-01   -.562E-03 -.325E-03 -.415E-02
   0.237E-01 0.792E+00 0.459E+00   0.474E-10 -.799E+00 -.455E+00   -.245E-17 -.890E-02 0.761E-03   -.405E-04 -.325E-03 -.289E-03
   0.118E+01 0.880E-01 0.942E-01   -.124E+01 -.703E-01 -.809E-01   -.190E-01 -.650E-02 0.471E-03   -.219E-03 -.272E-03 -.780E-03
   -.817E-01 0.286E+00 -.171E+00   -.425E-11 -.295E+00 0.166E+00   -.348E-17 -.910E-02 -.820E-03   0.685E-04 -.249E-03 0.671E-03
   -.140E+01 -.377E+01 0.145E+01   0.138E+01 0.366E+01 -.144E+01   0.158E-01 0.375E-01 -.897E-03   0.129E-03 0.726E-03 0.276E-02
   0.250E+01 0.299E+01 0.138E+01   -.248E+01 -.303E+01 -.144E+01   -.245E-01 -.324E-01 -.897E-03   -.636E-03 -.373E-03 0.284E-02
   0.193E+01 -.160E+01 0.102E+00   -.189E+01 0.164E+01 -.110E+00   -.200E-01 0.220E-01 0.167E-02   -.390E-03 0.296E-03 0.985E-03
   -.734E+00 -.424E+00 -.455E+00   0.692E+00 0.400E+00 0.455E+00   0.771E-02 0.445E-02 -.761E-03   0.235E-03 0.136E-03 0.316E-03
   0.253E+01 0.146E+01 -.468E-03   -.191E-12 -.272E-12 -.180E-12   0.124E-14 0.173E-14 -.171E-16   -.222E-02 -.131E-02 -.160E-04

 POSITION                                       TOTAL-FORCE (eV/Angst)
      1.24473      0.71860      1.66970         0.000585      0.000490      0.001480
      4.97864      7.18625      1.67443        -0.000366     -0.000497      0.009450
      6.22343      0.71860      1.66970        -0.000585      0.000490      0.001480
      9.95752      7.18630      1.66958        -0.000306     -0.000520      0.000746
     11.20224      0.71862      1.66938         0.000000     -0.000000      0.000571
     -3.73408      9.34211      8.33669        -0.000000     -0.000000     -0.000957
      1.24466      9.34209      8.33625         0.000132     -0.000752     -0.001480
      2.48931      2.87461      8.33153         0.000247      0.000565     -0.009450
      6.22350      9.34209      8.33625        -0.000132     -0.000752     -0.001480
      7.46817      2.87449      8.33578        -0.000797      0.000460     -0.002122
     12.44693      2.87458      8.33663         0.000556      0.000445      0.000562
     -1.24474      9.34206      1.66958         0.000603     -0.000005      0.000746
     -0.00001      2.87449      1.67018         0.000797      0.000460      0.002122
      4.97884      2.87461      1.67443        -0.000247      0.000565      0.009450
      3.73408      9.34212      1.67018         0.000000     -0.000920      0.002122
      8.71290      9.34206      1.66958        -0.000603     -0.000005      0.000746
      9.95754      2.87458      1.66933        -0.000556      0.000445     -0.000562
     -4.97870     11.49797      8.33638        -0.000297      0.000525     -0.000746
     -0.00010     11.49792      8.33664        -0.000079     -0.000045      0.000426
      1.24475      5.03025      8.33153         0.000613     -0.000069     -0.009450
      6.22340      5.03025      8.33153        -0.000613     -0.000069     -0.009450
      4.97884     11.49793      8.33663         0.000108     -0.000704      0.000562
     11.20224      5.03048      8.33664         0.000000      0.000091      0.000426
     -1.24469      5.03041      1.66970         0.000717      0.000262      0.001480
     -2.48946     11.49797      1.66958         0.000297      0.000525      0.000746
      2.48932     11.49793      1.66933        -0.000108     -0.000704     -0.000562
      3.73408      5.03037      1.66811        -0.000000      0.000000      0.005128
      7.46825     11.49792      1.66931         0.000079     -0.000045     -0.000426
      8.71285      5.03041      1.66970        -0.000717      0.000262      0.001480
      0.00013      7.18616      8.33470         0.000756     -0.000437     -0.004942
      1.24473      0.71860      8.33625         0.000585      0.000490     -0.001480
      4.97864      7.18625      8.33153        -0.000366     -0.000497     -0.009450
      6.22343      0.71860      8.33625        -0.000585      0.000490     -0.001480
      9.95752      7.18630      8.33638        -0.000306     -0.000520     -0.000746
     -2.48936      7.18630      1.66958         0.000306     -0.000520      0.000746
     11.20224      0.71862      8.33658        -0.000000     -0.000000     -0.000571
      3.73408      0.71877      1.67125        -0.000000      0.000873      0.004942
      2.48952      7.18625      1.67443         0.000366     -0.000497      0.009450
      7.46803      7.18616      1.67125        -0.000756     -0.000437      0.004942
      8.71278      0.71859      1.66933        -0.000663      0.000259     -0.000562
      2.48952      7.18625      8.33153         0.000366     -0.000497     -0.009450
     13.69169      0.71859      1.66933         0.000663      0.000259     -0.000562
     -1.24474      9.34206      8.33638         0.000603     -0.000005     -0.000746
     -0.00001      2.87449      8.33578         0.000797      0.000460     -0.002122
      4.97884      2.87461      8.33153        -0.000247      0.000565     -0.009450
      3.73408      9.34212      8.33578        -0.000000     -0.000920     -0.002122
      8.71290      9.34206      8.33638        -0.000603     -0.000005     -0.000746
      9.95754      2.87458      8.33663        -0.000556      0.000445      0.000562
     -3.73408      9.34211      1.66927        -0.000000     -0.000000      0.000957
      1.24466      9.34209      1.66970         0.000132     -0.000752      0.001480
      2.48931      2.87461      1.67443         0.000247      0.000565      0.009450
      6.22350      9.34209      1.66970        -0.000132     -0.000752      0.001480
      7.46817      2.87449      1.67018        -0.000797      0.000460      0.002122
     12.44693      2.87458      1.66933         0.000556      0.000445     -0.000562
     -1.24469      5.03041      8.33625         0.000717      0.000262     -0.001480
     -2.48946     11.49797      8.33638         0.000297      0.000525     -0.000746
      2.48932     11.49793      8.33663        -0.000108     -0.000704      0.000562
      3.73408      5.03037      8.33785         0.000000     -0.000000     -0.005128
      7.46825     11.49792      8.33664         0.000079     -0.000045      0.000426
     -4.97870     11.49797      1.66958        -0.000297      0.000525      0.000746
[...]
      2.49008      5.74859      8.33759        -0.000779      0.000450     -0.007937
      6.22358     12.21654      8.33981        -0.000332      0.000192      0.000208
     -6.22347     12.21607      1.66611         0.000131     -0.000150      0.000474
      7.46908      5.74910      8.33949        -0.000004      0.000118     -0.005776
     -1.24469     12.21607      1.66611        -0.000131     -0.000150      0.000474
     -0.00092      5.74910      1.66647         0.000004      0.000118      0.005776
     -1.24546      7.90530      1.66628        -0.000565      0.000326      0.001852
      4.97808      5.74859      1.66837         0.000779      0.000450      0.007937
      3.73408     12.21677      1.66623        -0.000000      0.000688     -0.000002
      9.95801      5.74925      1.66611         0.000065      0.000188      0.000474
     -3.73408      7.90513      8.33960         0.000000      0.000629     -0.000700
      2.48902      1.43639      8.33949         0.000104     -0.000055     -0.005776
      6.22402      7.90561      8.33949         0.000100     -0.000062     -0.005776
      7.46860      1.43667      8.34039         0.000531     -0.000373     -0.000594
     12.44678      1.43716      8.33973        -0.000596     -0.000344      0.000002
    total drift:                                2.523657      1.455644     -0.000484

  FREE ENERGIE OF THE ION-ELECTRON SYSTEM (eV)
  free  energy   TOTEN  =     -3062.60732806 eV

  energy  without entropy=    -3062.60732806  energy(sigma->0) =    -3062.60732806

 d Force = 0.2291333E-03[ 0.143E-03, 0.315E-03]  d Energy = 0.2053553E-03 0.238E-04
 d Force =-0.2696265E+00[-0.271E+00,-0.269E+00]  d Ewald  =-0.2696265E+00 0.253E-07

 stress matrix after NEB project (eV)
     -2.77064     -0.00000      0.00000
     -0.00000     -2.77064     -0.00000
      0.00000     -0.00000     -8.31262
  FORCES: max atom, RMS     0.009470    0.003553
  FORCE total and by dimension    0.060197    0.009450
  Stress total and by dimension    9.189810    8.312621
 Quasi-Newton relaxation of ions (Broydens 2nd method)
  g(Force)  = 0.105E-03   g(Stress)= 0.000E+00

 retain information from N=  7 steps
 eigenvalues of (default step * inverse Hessian matrix)
  average eigenvalue of G=   2.8208
 eigenvalue spectrum of G is  7.3901  7.3901  1.3576  1.3576  0.7651  0.7651  0.7202

 reached required accuracy - stopping structural energy minimisation
 writing wavefunctions

 total charge

[...]

 magnetization (x)

# of ion       s       p       d       tot
    1        0.000   0.000   0.000   0.000
    2        0.000   0.003   0.000   0.003
    3        0.000   0.000   0.000   0.000
    4        0.000   0.001   0.000   0.001
    5        0.000   0.001   0.000   0.001
    6        0.000   0.000   0.000   0.000
    7        0.000   0.000   0.000   0.000
    8        0.000   0.003   0.000   0.003
    9        0.000   0.000   0.000   0.000
   10        0.000   0.001   0.000   0.001
   11        0.000   0.000   0.000   0.000
   12        0.000   0.001   0.000   0.001
   13        0.000   0.001   0.000   0.001
   14        0.000   0.003   0.000   0.003
   15        0.000   0.001   0.000   0.001
   16        0.000   0.001   0.000   0.001
   17        0.000   0.000   0.000   0.000
   18        0.000   0.001   0.000   0.001
   19        0.000   0.000   0.000   0.000
   20        0.000   0.003   0.000   0.003
   21        0.000   0.003   0.000   0.003
   22        0.000   0.000   0.000   0.000
   23        0.000   0.000   0.000   0.000
   24        0.000   0.000   0.000   0.000
   25        0.000   0.001   0.000   0.001
   26        0.000   0.000   0.000   0.000
   27        0.000   0.006   0.000   0.006
   28        0.000   0.000   0.000   0.000
   29        0.000   0.000   0.000   0.000
   30        0.000   0.002   0.000   0.002
   31        0.000   0.000   0.000   0.000
   32        0.000   0.003   0.000   0.003
   33        0.000   0.000   0.000   0.000
   34        0.000   0.001   0.000   0.001
   35        0.000   0.001   0.000   0.001
   36        0.000   0.001   0.000   0.001
   37        0.000   0.002   0.000   0.002
   38        0.000   0.003   0.000   0.003
   39        0.000   0.002   0.000   0.002
   40        0.000   0.000   0.000   0.000
   41        0.000   0.003   0.000   0.003
   42        0.000   0.000   0.000   0.000
   43        0.000   0.001   0.000   0.001
   44        0.000   0.001   0.000   0.001
   45        0.000   0.003   0.000   0.003
   46        0.000   0.001   0.000   0.001
   47        0.000   0.001   0.000   0.001
   48        0.000   0.000   0.000   0.000
   49        0.000   0.000   0.000   0.000
   50        0.000   0.000   0.000   0.000
   51        0.000   0.003   0.000   0.003
   52        0.000   0.000   0.000   0.000
   53        0.000   0.001   0.000   0.001
   54        0.000   0.000   0.000   0.000
   55        0.000   0.000   0.000   0.000
   56        0.000   0.001   0.000   0.001
   57        0.000   0.000   0.000   0.000
   58        0.000   0.006   0.000   0.006
   59        0.000   0.000   0.000   0.000
   60        0.000   0.001   0.000   0.001
[...]
  273       -0.000  -0.000   0.000  -0.000
  274       -0.000   0.000   0.000  -0.000
  275       -0.000  -0.000   0.000  -0.000
  276       -0.000  -0.000   0.000  -0.000
  277       -0.000  -0.000   0.000  -0.000
  278       -0.000  -0.000   0.000  -0.000
  279       -0.000  -0.000   0.000  -0.000
  280       -0.000  -0.000   0.000  -0.000
  281       -0.000   0.000   0.000   0.000
  282       -0.000  -0.000   0.000  -0.000
  283       -0.000  -0.000   0.000  -0.000
  284       -0.000  -0.000   0.000  -0.000
  285       -0.000  -0.000   0.000  -0.000
  286       -0.000  -0.000   0.000  -0.000
  287       -0.000   0.000   0.000   0.000
tot          0.173   2.817   0.000   2.989