 vasp.6.2.1 16May21 (build Sep  7 2022 15:23:46) gamma-only
 executed on          ARA Cluster date 2022.11.17  13:42:33

 INCAR:
   LREAL = Auto
   ISTART = 0
   ICHARG = 2
   LORBIT = 11
   ENCUT = 500
   EDIFF = 1E-4
   NELM = 60
   NELMIN = 4
   IBRION = 2
   NSW = 500
   ISIF = 2
   EDIFFG = -5E-2
   ISMEAR = 0
   SIGMA = 0.05
   ISPIN = 2
   MAGMOM = 49*-1 0 47*1 0
   GGA = PE
   LHFCALC = .TRUE.
   AEXX = 0.25
   HFSCREEN = 0.2
   ALGO = Damped
   TIME = 0.4
   PRECFOCK = Fast

 POTCAR:    PAW_PBE B 06Sep2000
 POTCAR:    PAW_PBE C 08Apr2002
 POTCAR:    PAW_PBE N 08Apr2002
 POTCAR:    PAW_PBE O 08Apr2002
|           W    W    AA    RRRRR   N    N  II  N    N   GGGG   !!!           |
|           W    W   A  A   R    R  NN   N  II  NN   N  G    G  !!!           |
|           W    W  A    A  R    R  N N  N  II  N N  N  G       !!!           |
|           W WW W  AAAAAA  RRRRR   N  N N  II  N  N N  G  GGG   !            |
|           WW  WW  A    A  R   R   N   NN  II  N   NN  G    G                |
|           W    W  A    A  R    R  N    N  II  N    N   GGGG   !!!           |
|     For optimal performance we recommend to set                             |
|       NCORE = 2 up to number-of-cores-per-socket                            |
|     This setting can greatly improve the performance of VASP for DFT.       |
|     The default, NCORE=1 might be grossly inefficient on modern             |
|     multi-core architectures or massively parallel machines. Do your        |
|     Unfortunately you need to use the default for GW and RPA                |
|     calculations (for HF NCORE is supported but not extensively tested      |
|     yet).                                                                   |

   TITEL  = PAW_PBE B 06Sep2000
   POMASS =   10.811; ZVAL   =    3.000    mass and valenz
   ENMAX  =  318.614; ENMIN  =  238.960 eV

   TITEL  = PAW_PBE C 08Apr2002
   POMASS =   12.011; ZVAL   =    4.000    mass and valenz
   ENMAX  =  400.000; ENMIN  =  300.000 eV

[...]

   TITEL  = PAW_PBE O 08Apr2002
   POMASS =   16.000; ZVAL   =    6.000    mass and valenz
   ENMAX  =  400.000; ENMIN  =  300.000 eV

 Optimization of the real space projectors (new method)

 maximal supplied QI-value         = 22.11
 optimisation between [QCUT,QGAM] = [ 11.28, 22.77] = [ 35.61,145.23] Ry
 Optimized for a Real-space Cutoff    1.16 Angstroem

   l    n(q)    QCUT    max X(q) W(low)/X(q) W(high)/X(q)  e(spline)
   0      8    11.276    53.033    0.48E-03    0.56E-03    0.11E-06
   0      8    11.276    34.740    0.48E-03    0.55E-03    0.11E-06
   1      7    11.276    30.949    0.26E-03    0.19E-04    0.19E-06
   1      7    11.276    19.518    0.24E-03    0.14E-04    0.18E-06
 Optimization of the real space projectors (new method)

[...]

   l    n(q)    QCUT    max X(q) W(low)/X(q) W(high)/X(q)  e(spline)
   0      9    11.310    79.467    0.75E-04    0.16E-03    0.36E-06
   0      9    11.310    66.151    0.74E-04    0.16E-03    0.36E-06
   1      8    11.310    17.416    0.35E-03    0.12E-03    0.95E-06
   1      8    11.310    12.382    0.37E-03    0.13E-03    0.98E-06
 Optimization of the real space projectors (new method)

 maximal supplied QI-value         = 24.76
 optimisation between [QCUT,QGAM] = [ 11.39, 22.77] = [ 36.31,145.25] Ry
 Optimized for a Real-space Cutoff    1.00 Angstroem

   l    n(q)    QCUT    max X(q) W(low)/X(q) W(high)/X(q)  e(spline)
   0      7    11.387    20.381    0.39E-03    0.13E-02    0.15E-06
   0      7    11.387    15.268    0.42E-03    0.14E-02    0.17E-06
   1      6    11.387     5.964    0.41E-03    0.11E-02    0.17E-06
   1      6    11.387     5.382    0.39E-03    0.87E-03    0.15E-06
  PAW_PBE B 06Sep2000                   :
  PAW_PBE C 08Apr2002                   :
  PAW_PBE N 08Apr2002                   :
  PAW_PBE O 08Apr2002                   :

 POSCAR: B C N O
  positions in direct lattice
 exchange correlation table for  LEXCH =        8
   RHO(1)=    0.500       N(1)  =     2000
   RHO(2)=  100.500       N(2)  =     4000

 ion  position               nearest neighbor table
   1  0.905  0.952  0.111-  52 1.45  91 1.45  51 1.45
   2  0.905  0.095  0.111-  53 1.45  92 1.45  52 1.45
   3  0.905  0.238  0.111-  54 1.45  93 1.45  53 1.45
   4  0.905  0.381  0.111-  55 1.45  94 1.45  54 1.45
   5  0.905  0.524  0.111-  56 1.45  95 1.45  55 1.45
   6  0.905  0.667  0.111-  57 1.45  96 1.45  56 1.45
   7  0.905  0.810  0.111-  51 1.45  97 1.45  57 1.45
   8  0.048  0.952  0.111-  59 1.45  51 1.45  58 1.45
   9  0.048  0.095  0.111-  52 1.45  60 1.45  59 1.45
  10  0.048  0.238  0.111-  53 1.45  61 1.45  60 1.45
  11  0.048  0.381  0.111-  54 1.45  62 1.45  61 1.45
  12  0.048  0.524  0.111-  55 1.45  63 1.45  62 1.45
  13  0.048  0.667  0.111-  56 1.45  64 1.45  63 1.45
  14  0.048  0.810  0.111-  57 1.45  58 1.45  64 1.45
  15  0.190  0.952  0.111-  66 1.45  58 1.45  65 1.45
  16  0.190  0.095  0.111-  67 1.45  59 1.45  66 1.45
  17  0.190  0.238  0.111-  68 1.45  60 1.45  67 1.45
  18  0.190  0.381  0.111-  69 1.45  61 1.45  68 1.45
  19  0.190  0.524  0.111-  70 1.45  62 1.45  69 1.45
  20  0.190  0.667  0.111-  71 1.45  63 1.45  70 1.45
  21  0.190  0.810  0.111-  65 1.45  64 1.45  71 1.45
  22  0.333  0.952  0.111-  73 1.45  65 1.45  72 1.45
  23  0.333  0.095  0.111-  74 1.45  66 1.45  73 1.45
  24  0.333  0.238  0.111-  75 1.45  67 1.45  74 1.45
  25  0.333  0.381  0.111-  50 1.45  68 1.45  75 1.45
  26  0.333  0.524  0.111-  76 1.45  69 1.45  50 1.45
  27  0.333  0.667  0.111-  77 1.45  70 1.45  76 1.45
  28  0.333  0.810  0.111-  72 1.45  71 1.45  77 1.45
  29  0.476  0.952  0.111-  79 1.45  72 1.45  78 1.45
  30  0.476  0.095  0.111-  80 1.45  73 1.45  79 1.45
  31  0.476  0.238  0.111-  81 1.45  74 1.45  80 1.45
  32  0.476  0.381  0.111-  98 1.45  75 1.45  81 1.45
  33  0.476  0.524  0.111-  82 1.45  50 1.45  98 1.45
  34  0.476  0.667  0.111-  83 1.45  76 1.45  82 1.45
  35  0.476  0.810  0.111-  78 1.45  77 1.45  83 1.45
  36  0.619  0.952  0.111-  85 1.45  78 1.45  84 1.45
  37  0.619  0.095  0.111-  86 1.45  79 1.45  85 1.45
  38  0.619  0.238  0.111-  87 1.45  80 1.45  86 1.45
  39  0.619  0.381  0.111-  88 1.45  81 1.45  87 1.45
  40  0.619  0.524  0.111-  89 1.45  98 1.45  88 1.45
  41  0.619  0.667  0.111-  90 1.45  82 1.45  89 1.45
  42  0.619  0.810  0.111-  84 1.45  83 1.45  90 1.45
  43  0.762  0.952  0.111-  92 1.45  84 1.45  91 1.45
  44  0.762  0.095  0.111-  93 1.45  85 1.45  92 1.45
  45  0.762  0.238  0.111-  94 1.45  86 1.45  93 1.45
  46  0.762  0.381  0.111-  95 1.45  87 1.45  94 1.45
  47  0.762  0.524  0.111-  96 1.45  88 1.45  95 1.45
  48  0.762  0.667  0.111-  97 1.45  89 1.45  96 1.45
  49  0.762  0.810  0.111-  91 1.45  90 1.45  97 1.45
  50  0.381  0.476  0.111-  25 1.45  33 1.45  26 1.45
  51  0.952  0.905  0.111-   8 1.45   7 1.45   1 1.45
  52  0.952  0.048  0.111-   1 1.45   9 1.45   2 1.45
  53  0.952  0.190  0.111-  10 1.45   2 1.45   3 1.45
  54  0.952  0.333  0.111-  11 1.45   3 1.45   4 1.45
  55  0.952  0.476  0.111-  12 1.45   4 1.45   5 1.45
  56  0.952  0.619  0.111-  13 1.45   5 1.45   6 1.45
  57  0.952  0.762  0.111-  14 1.45   6 1.45   7 1.45
  58  0.095  0.905  0.111-  14 1.45  15 1.45   8 1.45
  59  0.095  0.048  0.111-   8 1.45  16 1.45   9 1.45
  60  0.095  0.190  0.111-   9 1.45  17 1.45  10 1.45
[...]
  84  0.667  0.905  0.111-  42 1.45  43 1.45  36 1.45
  85  0.667  0.048  0.111-  36 1.45  44 1.45  37 1.45
  86  0.667  0.190  0.111-  37 1.45  45 1.45  38 1.45
  87  0.667  0.333  0.111-  38 1.45  46 1.45  39 1.45
  88  0.667  0.476  0.111-  39 1.45  47 1.45  40 1.45
  89  0.667  0.619  0.111-  40 1.45  48 1.45  41 1.45
  90  0.667  0.762  0.111-  41 1.45  49 1.45  42 1.45
  91  0.810  0.905  0.111-  49 1.45   1 1.45  43 1.45
  92  0.810  0.048  0.111-  43 1.45   2 1.45  44 1.45
  93  0.810  0.190  0.111-  44 1.45   3 1.45  45 1.45
  94  0.810  0.333  0.111-  45 1.45   4 1.45  46 1.45
  95  0.810  0.476  0.111-  46 1.45   5 1.45  47 1.45
  96  0.810  0.619  0.111-  47 1.45   6 1.45  48 1.45
  97  0.810  0.762  0.111-  48 1.45   7 1.45  49 1.45
  98  0.524  0.476  0.111-  32 1.45  40 1.45  33 1.45

  LATTYP: Found a hexagonal cell.
 ALAT       =    17.5279000000
 C/A-ratio  =     0.8557785017

  Lattice vectors:

 A1 = (   8.7639500000, -15.1796066750,   0.0000000000)
 A2 = (   8.7639500000,  15.1796066750,   0.0000000000)
 A3 = (   0.0000000000,   0.0000000000,  15.0000000000)

Analysis of symmetry for initial positions (statically):
 Subroutine PRICEL returns:
 Original cell was already a primitive cell.

 Routine SETGRP: Setting up the symmetry group for a
 hexagonal supercell.

 Subroutine GETGRP returns: Found  1 space group operations
 (whereof  1 operations were pure point group operations)
 out of a pool of 24 trial point group operations.

The static configuration has the point symmetry C_1 .

Analysis of symmetry for dynamics (positions and initial velocities):
 Subroutine PRICEL returns:
 Original cell was already a primitive cell.

[...]

The dynamic configuration has the point symmetry C_1 .

Analysis of constrained symmetry for selective dynamics:
 Subroutine PRICEL returns:
 Original cell was already a primitive cell.

[...]

The constrained configuration has the point symmetry C_1 .

Analysis of structural, dynamic, and magnetic symmetry:
 Subroutine PRICEL returns:
 Original cell was already a primitive cell.

 Routine SETGRP: Setting up the symmetry group for a
 hexagonal supercell.

 Subroutine GETGRP returns: Found  1 space group operations
 (whereof  1 operations were pure point group operations)
 out of a pool of 24 trial point group operations.

The overall configuration has the point symmetry C_1 .

 Subroutine INISYM returns: Found  1 space group operations
 (whereof  1 operations are pure point group operations),
 and found     1 'primitive' translations

                                     Primitive cell

  volume of cell :    3990.9994

  direct lattice vectors                    reciprocal lattice vectors
     8.763950000-15.179606675  0.000000000     0.057051900 -0.032938930  0.000000000
     8.763950000 15.179606675  0.000000000     0.057051900  0.032938930 -0.000000000
     0.000000000  0.000000000 15.000000000    -0.000000000  0.000000000  0.066666667

  length of vectors
    17.527900000 17.527900000 15.000000000     0.065877860  0.065877860  0.066666667

  position of ions in fractional coordinates (direct lattice)
     0.904763374  0.952382971  0.111024154
     0.904763374  0.095238647  0.111024154
     0.904763374  0.238096034  0.111024154
     0.904763374  0.380953421  0.111024154
     0.904763374  0.523810809  0.111024154
     0.904763374  0.666668196  0.111024154
     0.904763374  0.809525584  0.111024154
     0.047619050  0.952382971  0.111024154
     0.047619050  0.095238647  0.111024154
     0.047619050  0.238096034  0.111024154
     0.047619050  0.380953421  0.111024154
     0.047619050  0.523810809  0.111024154
     0.047619050  0.666668196  0.111024154
     0.047619050  0.809525584  0.111024154
     0.190476438  0.952382971  0.111024154
     0.190476438  0.095238647  0.111024154
     0.190476438  0.238096034  0.111024154
[...]
   -.131E+01 0.579E+00 -.130E-01   0.152E+01 -.529E+00 0.107E-01   -.184E+00 -.445E-01 -.361E-02
   -.885E+00 0.112E+01 -.584E-01   0.103E+01 -.130E+01 0.543E-01   -.128E+00 0.162E+00 -.114E-02
   -.588E+00 -.380E+00 -.138E-01   0.676E+00 0.106E+00 0.120E-01   -.716E-01 0.233E+00 -.344E-02
   -.120E-01 -.423E+00 -.800E-01   0.128E+00 0.228E+00 0.754E-01   -.866E-01 0.166E+00 -.940E-03
   0.258E+00 -.404E+00 -.184E-02   -.158E+00 0.330E+00 -.524E-04   -.846E-01 0.666E-01 -.418E-02
   0.458E+00 -.568E+00 0.114E-02   -.439E+00 0.554E+00 -.304E-02   -.314E-01 0.229E-01 -.378E-02
   0.433E+00 -.447E+00 -.129E+00   -.339E+00 0.554E+00 0.123E+00   -.103E+00 -.103E+00 0.150E-02
   -.150E+00 0.234E+01 0.380E-01   0.577E+00 -.188E+01 -.399E-01   -.395E+00 -.429E+00 -.427E-02
   -.609E+01 0.384E+01 0.383E-01   0.653E+01 -.391E+01 -.387E-01   -.409E+00 0.903E-01 -.537E-02
   -.185E+01 -.250E+00 -.116E+00   0.186E+01 -.320E+00 0.110E+00   0.723E-02 0.544E+00 0.197E-02
   0.282E+00 -.449E+00 -.143E+00   -.263E+00 0.125E+00 0.137E+00   -.228E-01 0.281E+00 0.272E-02
   0.488E+00 -.444E+00 0.258E-01   -.480E+00 0.298E+00 -.268E-01   -.191E-01 0.131E+00 -.398E-02
   0.591E+00 -.533E+00 -.637E-01   -.646E+00 0.432E+00 0.596E-01   0.471E-01 0.785E-01 -.108E-02
   0.462E+00 -.117E+01 -.225E+00   -.585E+00 0.114E+01 0.215E+00   0.118E+00 0.447E-01 0.601E-02
   0.125E+01 -.381E+01 -.620E-01   -.138E+01 0.392E+01 0.560E-01   0.130E+00 -.832E-01 0.176E-02
   -.138E+02 -.995E+01 -.706E-01   0.171E+02 0.126E+02 0.780E-01   -.320E+01 -.257E+01 -.896E-02
   0.116E+01 0.193E+02 -.118E+00   -.124E+01 -.230E+02 0.120E+00   0.786E-01 0.357E+01 -.269E-02
   0.257E+01 -.107E+00 -.186E+00   -.260E+01 -.348E+00 0.177E+00   0.273E-01 0.435E+00 0.594E-02
   0.104E+01 -.398E+00 -.144E+00   -.108E+01 0.204E+00 0.138E+00   0.375E-01 0.154E+00 0.203E-02
   0.118E+00 0.247E+00 -.375E-01   -.206E+00 -.342E+00 0.347E-01   0.815E-01 0.608E-01 -.249E-02
   -.648E+00 -.546E+00 -.142E-02   0.488E+00 0.432E+00 -.121E-03   0.150E+00 0.104E+00 -.365E-02
   -.210E+01 -.134E+01 -.519E-01   0.153E+01 0.109E+01 0.476E-01   0.539E+00 0.245E+00 -.322E-03
   0.485E+01 -.621E+01 -.629E-01   -.884E+01 0.470E+01 0.561E-01   0.385E+01 0.147E+01 0.387E-02
   0.169E+02 -.109E+02 -.131E+00   -.215E+02 0.172E+02 0.132E+00   0.440E+01 -.604E+01 0.686E-03
   0.576E+01 0.480E+01 -.636E-01   -.626E+01 -.428E+01 0.589E-01   0.473E+00 -.458E+00 0.160E-02
   0.101E+01 0.133E+01 -.147E+00   -.114E+01 -.134E+01 0.140E+00   0.129E+00 0.676E-02 0.151E-02
   0.101E+00 0.604E+00 -.551E-01   -.169E+00 -.589E+00 0.513E-01   0.559E-01 -.193E-01 -.121E-02
   -.363E+00 0.705E-01 -.647E-02   0.300E+00 -.173E+00 0.475E-02   0.628E-01 0.791E-01 -.390E-02
   -.500E+00 -.231E+00 -.218E-01   0.352E+00 0.146E-01 0.194E-01   0.135E+00 0.192E+00 -.212E-02
   -.128E-01 0.144E+01 0.138E-01   -.122E+00 -.194E+01 -.153E-01   0.129E+00 0.515E+00 -.254E-02
   -.947E+01 0.148E+01 -.816E-01   0.127E+02 -.322E+01 0.738E-01   -.311E+01 0.169E+01 0.449E-02
   -.258E+01 0.249E+01 0.268E-01   0.251E+01 -.163E+01 -.288E-01   0.657E-01 -.810E+00 -.403E-02
   0.834E+00 0.105E+01 0.341E-02   -.963E+00 -.796E+00 -.540E-02   0.119E+00 -.231E+00 -.358E-02
   0.774E-01 0.593E+00 0.162E-03   -.805E-01 -.502E+00 -.211E-02   -.181E-01 -.883E-01 -.380E-02
   -.316E+00 0.364E+00 -.127E+00   0.326E+00 -.379E+00 0.122E+00   -.103E-01 0.256E-01 0.133E-02
   -.267E+00 0.729E-01 -.159E+00   0.271E+00 -.220E+00 0.152E+00   -.983E-02 0.124E+00 0.230E-02
   0.820E-01 -.142E+00 -.324E-01   -.147E-02 -.120E+00 0.295E-01   -.789E-01 0.235E+00 -.221E-02
   0.758E+00 -.269E+00 -.522E-01   -.283E+00 -.807E-01 0.474E-01   -.463E+00 0.363E+00 0.187E-03
   0.805E-01 -.181E+01 -.429E-01   0.381E+00 0.169E+01 0.386E-01   -.447E+00 0.130E+00 -.371E-03
   -.393E+00 0.131E+01 0.123E-01   0.444E+00 -.113E+01 -.139E-01   -.636E-01 -.165E+00 -.431E-02
   0.700E+01 -.762E+01 -.686E+00   -.823E+01 0.848E+01 0.698E+00   0.117E+01 -.819E+00 -.415E-02
   -.714E+00 -.376E+00 0.349E-01   0.922E+00 0.479E+00 -.465E-01   -.190E+00 -.942E-01 0.110E-01
   -.106E+01 -.737E+00 0.476E-01   0.125E+01 0.871E+00 -.599E-01   -.169E+00 -.118E+00 0.117E-01
   -.158E+01 0.391E+00 0.366E-02   0.184E+01 -.511E+00 -.154E-01   -.262E+00 0.115E+00 0.104E-01
   -.126E+01 0.185E+01 0.717E-01   0.153E+01 -.218E+01 -.841E-01   -.253E+00 0.291E+00 0.909E-02
   -.532E+00 0.189E+01 0.170E+00   0.679E+00 -.228E+01 -.183E+00   -.136E+00 0.383E+00 0.123E-01
   -.898E+00 0.118E+01 0.423E-01   0.109E+01 -.147E+01 -.558E-01   -.200E+00 0.269E+00 0.121E-01
   -.955E+00 -.181E+00 -.714E-02   0.121E+01 0.189E+00 -.505E-02   -.246E+00 -.123E-01 0.115E-01
   -.442E+00 -.472E+00 0.162E+00   0.539E+00 0.539E+00 -.175E+00   -.925E-01 -.704E-01 0.887E-02
   -.153E+01 -.913E+00 0.536E-01   0.171E+01 0.108E+01 -.657E-01   -.159E+00 -.167E+00 0.117E-01
   -.280E+01 -.111E+01 0.125E+00   0.310E+01 0.130E+01 -.135E+00   -.266E+00 -.186E+00 0.600E-02
[...]
   -.185E+00 0.629E+00 0.626E-01   0.173E+00 -.763E+00 -.751E-01   0.320E-01 0.126E+00 0.101E-01
   -.346E-01 0.130E+01 0.242E-01   -.213E-02 -.164E+01 -.341E-01   0.338E-01 0.350E+00 0.862E-02
   0.303E+00 0.357E+01 0.124E+00   -.340E+00 -.446E+01 -.136E+00   0.353E-01 0.808E+00 0.956E-02
   -.326E+01 0.107E+02 0.236E+00   0.346E+01 -.129E+02 -.260E+00   -.194E+00 0.201E+01 0.230E-01
   -.834E+01 -.680E+01 0.280E+00   0.101E+02 0.845E+01 -.306E+00   -.166E+01 -.153E+01 0.245E-01
   -.300E+00 -.255E+01 0.140E+00   0.645E+00 0.318E+01 -.149E+00   -.314E+00 -.578E+00 0.505E-02
   -.731E+00 -.845E+00 0.146E+00   0.967E+00 0.106E+01 -.158E+00   -.208E+00 -.217E+00 0.861E-02
   -.791E+00 -.100E+00 0.127E-01   0.927E+00 0.831E-01 -.245E-01   -.966E-01 0.306E-01 0.106E-01
   -.625E+00 0.109E+01 -.657E-02   0.737E+00 -.132E+01 -.934E-02   -.102E+00 0.197E+00 0.156E-01
   -.363E+00 0.178E+01 0.268E-01   0.479E+00 -.221E+01 -.368E-01   -.108E+00 0.428E+00 0.898E-02
   -.589E+00 0.251E+01 0.549E-01   0.756E+00 -.317E+01 -.638E-01   -.162E+00 0.610E+00 0.697E-02
   -.296E+01 0.602E+00 0.292E-01   0.352E+01 -.763E+00 -.422E-01   -.492E+00 0.122E+00 0.128E-01
   -.941E+00 -.106E+01 0.353E-01   0.137E+01 0.135E+01 -.455E-01   -.392E+00 -.279E+00 0.880E-02
   0.138E+02 -.238E+02 -.156E+01   -.161E+02 0.295E+02 0.170E+01   0.204E+01 -.511E+01 -.109E+00
   -.719E+00 0.175E+01 -.712E+00   0.103E-12 -.213E-12 -.444E-15   0.637E+00 -.147E+01 0.432E+00

 POSITION                                       TOTAL-FORCE (eV/Angst)
     16.27701      0.72248      1.66517        -0.015284      0.013353     -0.001149
      8.76318    -12.28724      1.66551         0.007704      0.007336     -0.000301
     10.01504    -10.11858      1.66552         0.002092      0.002609     -0.000389
     11.26772     -7.95107      1.66507         0.008545     -0.018635     -0.000931
     12.52237     -5.78425      1.66512         0.004942     -0.018960     -0.000530
     13.77722     -3.61794      1.66564        -0.012210      0.022687      0.000227
     15.02594     -1.44721      1.66552        -0.018027      0.005095     -0.000405
      8.76348     13.73315      1.66516         0.009852     -0.001456     -0.000482
      1.24649      0.72328      1.66518         0.014036     -0.003263     -0.000951
      2.50275      2.89333      1.66510         0.014772      0.005118     -0.001173
      3.75467      5.06119      1.66525         0.011812     -0.003978     -0.000642
      5.00595      7.23199      1.66515         0.014084     -0.030235     -0.000556
      6.26141      9.39592      1.66533         0.024890     -0.021123     -0.000924
      7.51369     11.56401      1.66505         0.010407     -0.004291     -0.001297
     10.01438     11.56340      1.66505        -0.012370      0.010336     -0.000931
      2.50141     -1.44778      1.66551        -0.013422     -0.000640      0.000072
      3.74295      0.72542      1.66497         0.014745      0.009736     -0.001399
      5.01037      2.89189      1.66504         0.016341      0.018560     -0.000963
      6.25395      5.06817      1.66560         0.012407     -0.001313      0.000176
      7.51239      7.23014      1.66566        -0.003618     -0.031578      0.001001
      8.76448      9.39665      1.66499        -0.011730     -0.009348     -0.000243
     11.26639      9.39549      1.66528        -0.005915     -0.018535     -0.000591
      3.74883     -3.62258      1.66583        -0.000195      0.012598      0.000671
      4.99631     -1.46216      1.66543         0.011234      0.020405      0.000220
      6.23461      0.71679      1.66586         0.003429      0.020121      0.002845
      7.51428      2.91468      1.66610         0.002321     -0.000913      0.003902
      8.77111      5.07137      1.66593        -0.003203     -0.000482      0.001763
     10.01880      7.23351      1.66566        -0.007363     -0.032834      0.000193
     12.52036      7.22959      1.66522        -0.003658     -0.031539     -0.000562
      5.00556     -5.78546      1.66510        -0.003135     -0.004297     -0.000451
      6.25178     -3.62066      1.66538        -0.002073      0.006713     -0.000085
      7.47363     -1.46426      1.66613        -0.006282      0.004725      0.002027
      8.78362      0.77009      1.66676        -0.008656      0.013863      0.006593
     10.01548      2.90046      1.66552        -0.008857      0.040565      0.001301
     11.27032      5.06408      1.66568        -0.004912     -0.004894     -0.000364
     13.77289      5.06243      1.66524        -0.009294     -0.005870     -0.000368
      6.25892     -7.95111      1.66511         0.002223     -0.019962     -0.000873
      7.50956     -5.78639      1.66519        -0.007509     -0.016071      0.000132
      8.76250     -3.62639      1.66520        -0.001349      0.035477      0.000565
     10.05051     -1.47530      1.66619         0.026086      0.017976      0.001512
     11.28616      0.73337      1.66512        -0.000374      0.010544     -0.001312
     12.52334      2.89701      1.66507        -0.007201      0.009869     -0.000838
     15.02525      2.89325      1.66504        -0.021742     -0.000233     -0.001002
      7.51142    -10.11872      1.66552        -0.000816      0.012945      0.000082
      8.76332     -7.95126      1.66562        -0.006459     -0.017370     -0.000322
     10.01724     -5.78616      1.66521        -0.001534     -0.017526     -0.000367
     11.27772     -3.62283      1.66535        -0.006725      0.029856     -0.000031
     12.52559     -1.45087      1.66532        -0.004755      0.022551     -0.000040
     13.77992      0.72422      1.66500        -0.015341      0.005231     -0.001137
      7.51307      1.43186      1.66768         0.009337     -0.001978      0.009871
     16.27388     -0.72396      1.66508         0.001349      0.001151     -0.000787
      8.75927    -13.73368      1.66506         0.002235      0.005917     -0.000810
     10.01207    -11.56291      1.66521        -0.016922      0.006658     -0.000536
     11.26398     -9.39278      1.66504        -0.006453     -0.006707     -0.001121
     12.51642     -7.22357      1.66478        -0.003043      0.026784     -0.001288
     13.77142     -5.05876      1.66513        -0.025875      0.010003     -0.000231
     15.02356     -2.89187      1.66523        -0.016971     -0.004371     -0.000247
      8.76296     12.28763      1.66477        -0.004900     -0.007664     -0.001318
      1.24838     -0.72455      1.66506         0.004185     -0.010122     -0.000753
      2.49023      1.44605      1.66485         0.010621     -0.011571     -0.001395
[...]
     13.77534      3.61652      1.66483         0.006688      0.000749     -0.001102
      6.26056     -9.39451      1.66506         0.023360      0.002610     -0.000790
      7.51177     -7.22698      1.66515         0.000696      0.036839     -0.000504
      8.76379     -5.05943      1.66495         0.002395     -0.012391     -0.000603
     10.01454     -2.89402      1.66505        -0.008441     -0.032325      0.001215
     11.26061     -0.72777      1.66495        -0.007104     -0.016904      0.001177
     12.53270      1.44542      1.66485         0.002808      0.007188     -0.001565
     15.02618      1.44580      1.66479         0.010302     -0.017860     -0.001249
      7.51071    -11.56396      1.66517         0.031992      0.017288     -0.000496
      8.76210     -9.39378      1.66530         0.001739     -0.019876      0.000009
     10.01431     -7.22589      1.66514        -0.002289      0.039356     -0.000532
     11.26714     -5.05902      1.66508        -0.008934      0.006223     -0.000912
     12.51924     -2.89286      1.66524         0.016073     -0.026947     -0.000186
     13.76981     -0.72482      1.66512         0.000871     -0.018130     -0.000799
      8.78527     -0.76642      1.66881        -0.012529     -0.004417      0.001651
    total drift:                                0.025995     -0.050774     -0.459164

  FREE ENERGIE OF THE ION-ELECTRON SYSTEM (eV)
  free  energy   TOTEN  =      -995.82498497 eV

  energy  without entropy=     -995.82498497  energy(sigma->0) =     -995.82498497

 d Force = 0.2888385E-03[ 0.160E-03, 0.417E-03]  d Energy = 0.1947613E-03 0.941E-04
 d Force = 0.2495502E-01[ 0.246E-01, 0.253E-01]  d Ewald  = 0.2495499E-01 0.313E-07

 No cell relaxation constraints have been applied.

 reached required accuracy - stopping structural energy minimisation
 writing wavefunctions

 total charge

[...]

 magnetization (x)

# of ion       s       p       d       tot
    1       -0.000  -0.000   0.000  -0.000
    2       -0.000  -0.000   0.000  -0.000
    3       -0.000  -0.000   0.000  -0.000
    4       -0.000  -0.000   0.000  -0.000
    5        0.000  -0.000   0.000  -0.000
    6       -0.000  -0.000   0.000  -0.000
    7       -0.000  -0.000   0.000  -0.000
    8        0.000   0.000   0.000   0.000
    9        0.000   0.000   0.000   0.000
   10        0.000   0.000   0.000   0.000
   11        0.000   0.000   0.000   0.000
   12       -0.000  -0.000   0.000  -0.000
   13       -0.000  -0.000   0.000  -0.000
   14       -0.000  -0.000   0.000  -0.000
   15        0.000   0.000   0.000   0.000
   16       -0.000  -0.000   0.000  -0.000
   17        0.000   0.000   0.000   0.000
   18        0.000   0.000   0.000   0.000
   19        0.000   0.000   0.000   0.000
   20       -0.000  -0.000   0.000  -0.000
   21       -0.000  -0.000   0.000  -0.000
   22       -0.000  -0.000   0.000  -0.000
   23        0.000   0.000   0.000   0.000
   24        0.000  -0.000   0.000  -0.000
   25        0.000   0.000   0.000   0.000
   26       -0.000  -0.000   0.000  -0.000
   27       -0.000  -0.000   0.000  -0.000
   28       -0.000  -0.000   0.000  -0.000
   29       -0.000  -0.000   0.000  -0.000
   30       -0.000  -0.000   0.000  -0.000
   31        0.000  -0.000   0.000  -0.000
   32       -0.000  -0.000   0.000  -0.000
   33       -0.000   0.000   0.000   0.000
   34        0.000  -0.000   0.000  -0.000
   35       -0.000   0.000   0.000   0.000
   36       -0.000  -0.000   0.000  -0.000
   37        0.000   0.000   0.000   0.000
   38       -0.000   0.000   0.000   0.000
   39        0.000   0.000   0.000   0.000
   40        0.000  -0.000   0.000  -0.000
   41        0.000   0.000   0.000   0.000
   42       -0.000   0.000   0.000   0.000
   43        0.000   0.000   0.000   0.000
   44       -0.000  -0.000   0.000  -0.000
   45       -0.000  -0.000   0.000  -0.000
   46        0.000   0.000   0.000   0.000
   47       -0.000  -0.000   0.000  -0.000
   48        0.000   0.000   0.000   0.000
   49        0.000  -0.000   0.000   0.000
   50       -0.000  -0.000   0.000  -0.000
   51       -0.000  -0.000   0.000  -0.000
   52        0.000   0.000   0.000   0.000
   53       -0.000  -0.000   0.000  -0.000
   54        0.000   0.000   0.000   0.000
   55       -0.000  -0.000   0.000  -0.000
   56        0.000   0.000   0.000   0.000
   57        0.000   0.000   0.000   0.000
   58        0.000   0.000   0.000   0.000
   59       -0.000  -0.000   0.000  -0.000
   60       -0.000   0.000   0.000   0.000
[...]
   84       -0.000  -0.000   0.000  -0.000
   85        0.000   0.000   0.000   0.000
   86        0.000  -0.000   0.000  -0.000
   87       -0.000   0.000   0.000   0.000
   88        0.000   0.000   0.000   0.000
   89        0.000   0.000   0.000   0.000
   90        0.000   0.000   0.000   0.000
   91        0.000   0.000   0.000   0.000
   92       -0.000  -0.000   0.000  -0.000
   93       -0.000   0.000   0.000   0.000
   94       -0.000   0.000   0.000   0.000
   95       -0.000  -0.000   0.000  -0.000
   96        0.000   0.000   0.000   0.000
   97        0.000   0.000   0.000   0.000
   98       -0.000  -0.000   0.000  -0.000
tot         -0.000   0.000   0.000  -0.000