 vasp.6.4.2 20Jul23 (build Nov 06 2023 14:18:49) gamma-only

 executed on             LinuxIFC date 2024.10.04  17:45:09

 INCAR:
   NCORE = 24
   LREAL = Auto
   ISTART = 0
   ICHARG = 2
   LORBIT = 11
   ENCUT = 500
   EDIFF = 1E-4
   NELM = 60
   NELMIN = 4
   IBRION = 1
   NSW = 900
   POTIM = 0.3
   ISIF = 2
   EDIFFG = -1E-2
   ADDGRID = .TRUE.
   ISMEAR = 0
   SIGMA = 0.01
   IVDW = 11
   VDW_S8 = 0.109
   VDW_SR = 1.129
   ISPIN = 2
   GGA = PE
   LHFCALC = .TRUE.
   AEXX = 0.32
   HFSCREEN = 0.2
   ALGO = Normal
   TIME = 0.4
   PRECFOCK = Fast

 POTCAR:    PAW_PBE N 08Apr2002
 POTCAR:    PAW_PBE B 06Sep2000
|           W    W    AA    RRRRR   N    N  II  N    N   GGGG   !!!           |
|           W    W   A  A   R    R  NN   N  II  NN   N  G    G  !!!           |
|           W    W  A    A  R    R  N N  N  II  N N  N  G       !!!           |
|           W WW W  AAAAAA  RRRRR   N  N N  II  N  N N  G  GGG   !            |
|           WW  WW  A    A  R   R   N   NN  II  N   NN  G    G                |
|           W    W  A    A  R    R  N    N  II  N    N   GGGG   !!!           |
|     You use a magnetic or noncollinear calculation, but did not specify     |
|     the initial magnetic moment with the MAGMOM tag. Note that a            |
|     default of 1 will be used for all atoms. This ferromagnetic setup       |
|     may break the symmetry of the crystal, in particular it may rule        |
|     out finding an antiferromagnetic solution. Thence, we recommend         |
|     setting the initial magnetic moment manually or verifying carefully     |
|     that this magnetic setup is desired.                                    |

   TITEL  = PAW_PBE N 08Apr2002
   POMASS =   14.001; ZVAL   =    5.000    mass and valenz
   ENMAX  =  400.000; ENMIN  =  300.000 eV

   TITEL  = PAW_PBE B 06Sep2000
   POMASS =   10.811; ZVAL   =    3.000    mass and valenz
   ENMAX  =  318.614; ENMIN  =  238.960 eV

 Optimization of the real space projectors (new method)

 maximal supplied QI-value         = 25.13
 optimisation between [QCUT,QGAM] = [ 11.31, 22.87] = [ 35.82,146.48] Ry
 Optimized for a Real-space Cutoff    1.27 Angstroem

   l    n(q)    QCUT    max X(q) W(low)/X(q) W(high)/X(q)  e(spline)
   0      9    11.310    79.467    0.75E-04    0.16E-03    0.36E-06
   0      9    11.310    66.151    0.74E-04    0.16E-03    0.36E-06
   1      8    11.310    17.416    0.35E-03    0.12E-03    0.95E-06
   1      8    11.310    12.382    0.37E-03    0.13E-03    0.98E-06
 Optimization of the real space projectors (new method)

 maximal supplied QI-value         = 22.11
 optimisation between [QCUT,QGAM] = [ 11.28, 22.77] = [ 35.61,145.23] Ry
 Optimized for a Real-space Cutoff    1.16 Angstroem

   l    n(q)    QCUT    max X(q) W(low)/X(q) W(high)/X(q)  e(spline)
   0      8    11.276    53.033    0.48E-03    0.56E-03    0.11E-06
   0      8    11.276    34.740    0.48E-03    0.55E-03    0.11E-06
   1      7    11.276    30.949    0.26E-03    0.19E-04    0.19E-06
   1      7    11.276    19.518    0.24E-03    0.14E-04    0.18E-06
  PAW_PBE N 08Apr2002                   :
  PAW_PBE B 06Sep2000                   :

 POSCAR: Species order: X N B
  positions in direct lattice
 exchange correlation table for  LEXCH =        8
   RHO(1)=    0.500       N(1)  =     2000
   RHO(2)=  100.500       N(2)  =     4000

 VTST: version 4.1, (05/19/21)

 CHAIN: initializing optimizer

 OPT: Using VASP QUASI-newton optimizer
 CHAIN: Read ICHAIN            0

 POSCAR: Species order: X N B
  positions in direct lattice

 ion  position               nearest neighbor table
   1  0.111  0.056  0.125- 252 1.44 216 1.44 275 1.44
   2  0.611  0.556  0.125- 254 1.44 217 1.44 280 1.44
   3  0.444  0.056  0.125- 218 1.44 255 1.44 277 1.44
   4  0.944  0.556  0.125- 219 1.44 250 1.44 282 1.44
   5  0.778  0.056  0.125- 257 1.44 220 1.44 281 1.44
   6  0.111  0.722  0.625- 258 1.44 283 1.44 221 1.44
   7  0.444  0.722  0.625- 256 1.44 222 1.44 261 1.44
   8  0.278  0.222  0.625- 260 1.44 284 1.44 223 1.44
   9  0.778  0.722  0.625- 262 1.44 285 1.44 224 1.44
  10  0.611  0.222  0.625- 263 1.44 286 1.44 225 1.44
  11  0.944  0.222  0.625- 287 1.44 226 1.44 259 1.44
  12  0.278  0.722  0.125- 265 1.44 279 1.44 227 1.44
  13  0.111  0.222  0.125- 266 1.44 216 1.44 228 1.44
  14  0.444  0.222  0.125- 218 1.44 229 1.44 268 1.44
  15  0.611  0.722  0.125- 267 1.44 217 1.44 230 1.44
  16  0.944  0.722  0.125- 219 1.44 231 1.44 264 1.44
  17  0.778  0.222  0.125- 269 1.44 220 1.44 232 1.44
  18  0.111  0.889  0.625- 271 1.44 221 1.44 233 1.44
  19  0.444  0.889  0.625- 222 1.44 234 1.44 272 1.44
  20  0.278  0.389  0.625- 273 1.44 223 1.44 235 1.44
  21  0.611  0.389  0.625- 276 1.44 225 1.44 236 1.44
  22  0.778  0.889  0.625- 274 1.44 224 1.44 237 1.44
  23  0.944  0.389  0.625- 226 1.44 238 1.44 270 1.44
  24  0.111  0.389  0.125- 278 1.44 228 1.44 239 1.44
  25  0.278  0.889  0.125- 277 1.44 227 1.44 240 1.44
  26  0.611  0.889  0.125- 281 1.44 230 1.44 241 1.44
  27  0.444  0.389  0.125- 229 1.44 242 1.44 280 1.44
  28  0.944  0.889  0.125- 231 1.44 243 1.44 275 1.44
  29  0.778  0.389  0.125- 282 1.44 232 1.44 244 1.44
  30  0.278  0.556  0.625- 256 1.44 245 1.44 235 1.44
  31  0.111  0.056  0.625- 284 1.44 246 1.44 233 1.44
  32  0.611  0.556  0.625- 285 1.44 247 1.44 236 1.44
  33  0.444  0.056  0.625- 248 1.44 286 1.44 234 1.44
  34  0.944  0.556  0.625- 249 1.44 283 1.44 238 1.44
  35  0.111  0.556  0.125- 279 1.44 250 1.44 239 1.44
  36  0.778  0.056  0.625- 287 1.44 251 1.44 237 1.44
  37  0.278  0.056  0.125- 218 1.44 252 1.44 240 1.44
  38  0.444  0.556  0.125- 253 1.44 217 1.44 242 1.44
  39  0.778  0.556  0.125- 219 1.44 254 1.44 244 1.44
  40  0.611  0.056  0.125- 220 1.44 255 1.44 241 1.44
  41  0.444  0.556  0.625- 256 1.44 247 1.44 273 1.44
  42  0.944  0.056  0.125- 257 1.44 216 1.44 243 1.44
  43  0.278  0.722  0.625- 222 1.44 245 1.44 258 1.44
  44  0.111  0.222  0.625- 223 1.44 246 1.44 259 1.44
  45  0.444  0.222  0.625- 248 1.44 260 1.44 225 1.44
  46  0.611  0.722  0.625- 224 1.44 247 1.44 261 1.44
  47  0.944  0.722  0.625- 249 1.44 262 1.44 221 1.44
  48  0.778  0.222  0.625- 226 1.44 251 1.44 263 1.44
  49  0.111  0.722  0.125- 227 1.44 250 1.44 264 1.44
  50  0.444  0.722  0.125- 253 1.44 265 1.44 230 1.44
  51  0.278  0.222  0.125- 229 1.44 252 1.44 266 1.44
  52  0.778  0.722  0.125- 231 1.44 254 1.44 267 1.44
  53  0.611  0.222  0.125- 232 1.44 255 1.44 268 1.44
  54  0.944  0.222  0.125- 257 1.44 269 1.44 228 1.44
  55  0.111  0.389  0.625- 235 1.44 259 1.44 270 1.44
  56  0.278  0.889  0.625- 234 1.44 258 1.44 271 1.44
  57  0.611  0.889  0.625- 237 1.44 261 1.44 272 1.44
  58  0.444  0.389  0.625- 260 1.44 273 1.44 236 1.44
  59  0.944  0.889  0.625- 262 1.44 274 1.44 233 1.44
  60  0.111  0.889  0.125- 240 1.44 264 1.44 275 1.44
[...]
 274  0.889  0.944  0.625-  22 1.44  59 1.44  72 1.44
 275  0.056  0.944  0.125-  60 1.44  28 1.44   1 1.44
 276  0.722  0.444  0.625-  21 1.44  61 1.44  70 1.44
 277  0.389  0.944  0.125-  25 1.44  62 1.44   3 1.44
 278  0.222  0.444  0.125-  24 1.44  63 1.44  64 1.44
 279  0.222  0.611  0.125-  35 1.44  12 1.44  64 1.44
 280  0.556  0.444  0.125-  65 1.44  27 1.44   2 1.44
 281  0.722  0.944  0.125-  26 1.44  66 1.44   5 1.44
 282  0.889  0.444  0.125-  29 1.44  67 1.44   4 1.44
 283  0.056  0.611  0.625-   6 1.44  68 1.44  34 1.44
 284  0.222  0.111  0.625-  31 1.44   8 1.44  69 1.44
 285  0.722  0.611  0.625-  32 1.44   9 1.44  70 1.44
 286  0.556  0.111  0.625-  10 1.44  71 1.44  33 1.44
 287  0.889  0.111  0.625-  36 1.44  11 1.44  72 1.44
 288  0.556  0.444  0.375- 208 1.44 170 1.44 145 1.44

  LATTYP: Found a hexagonal cell.
 ALAT       =    14.9363141462
 C/A-ratio  =     0.8932107448

  Lattice vectors:

 A1 = (  14.9363141462,   0.0000000000,   0.0000000000)
 A2 = (  -7.4681570731,  12.9352274895,  -0.0000000000)
 A3 = (   0.0000000000,   0.0000000000,  13.3412762838)

Analysis of symmetry for initial positions (statically):
 Subroutine PRICEL returns:
 Original cell was already a primitive cell.

 Routine SETGRP: Setting up the symmetry group for a
 hexagonal supercell.

 Subroutine GETGRP returns: Found 12 space group operations
 (whereof  2 operations were pure point group operations)
 out of a pool of 24 trial point group operations.

The static configuration has the point symmetry C_1h.
 The point group associated with its full space group is D_3h.

Analysis of symmetry for dynamics (positions and initial velocities):
 Subroutine PRICEL returns:
 Original cell was already a primitive cell.

[...]

The dynamic configuration has the point symmetry C_1h.
 The point group associated with its full space group is D_3h.

Analysis of structural, dynamic, and magnetic symmetry:
 Subroutine PRICEL returns:
 Original cell was already a primitive cell.

 Routine SETGRP: Setting up the symmetry group for a
 hexagonal supercell.

 Subroutine GETGRP returns: Found 12 space group operations
 (whereof  2 operations were pure point group operations)
 out of a pool of 24 trial point group operations.

The overall configuration has the point symmetry C_1h.
 The point group associated with its full space group is D_3h.

 Subroutine INISYM returns: Found 12 space group operations
 (whereof  2 operations are pure point group operations),
 and found     1 'primitive' translations

                                     Primitive cell

  volume of cell :    2577.5962

  direct lattice vectors                    reciprocal lattice vectors
    14.936314146  0.000000000  0.000000000     0.066950922  0.038654133 -0.000000000
    -7.468157073 12.935227490 -0.000000000     0.000000000  0.077308265 -0.000000000
     0.000000000  0.000000000 13.341276284     0.000000000  0.000000000  0.074955348

  length of vectors
    14.936314146 14.936314146 13.341276284     0.077308265  0.077308265  0.074955348

  position of ions in fractional coordinates (direct lattice)
     0.111111111  0.055555556  0.125000000
     0.611111111  0.555555556  0.125000000
     0.444444444  0.055555556  0.125000000
     0.944444444  0.555555556  0.125000000
     0.777777778  0.055555556  0.125000000
     0.111111111  0.722222222  0.625000000
     0.444444444  0.722222222  0.625000000
     0.277777778  0.222222222  0.625000000
     0.777777778  0.722222222  0.625000000
     0.611111111  0.222222222  0.625000000
     0.944444444  0.222222222  0.625000000
     0.277777778  0.722222222  0.125000000
     0.111111111  0.222222222  0.125000000
     0.444444444  0.222222222  0.125000000
     0.611111111  0.722222222  0.125000000
     0.944444444  0.722222222  0.125000000
     0.777777778  0.222222222  0.125000000
     0.111111111  0.888888889  0.625000000
     0.444444444  0.888888889  0.625000000
     0.277777778  0.388888889  0.625000000
     0.611111111  0.388888889  0.625000000
     0.777777778  0.888888889  0.625000000
     0.944444444  0.388888889  0.625000000
     0.111111111  0.388888889  0.125000000
     0.277777778  0.888888889  0.125000000
     0.611111111  0.888888889  0.125000000
     0.444444444  0.388888889  0.125000000
     0.944444444  0.888888889  0.125000000
     0.777777778  0.388888889  0.125000000
[...]
   -.161E+01 -.142E+01 -.343E+00   0.160E+01 0.142E+01 0.344E+00   0.698E-02 -.107E-02 -.227E-02   0.300E-02 0.100E-03 0.245E-05
   -.318E-03 0.709E+01 0.141E+02   -.277E-10 -.701E+01 -.142E+02   -.181E-16 -.671E-01 0.165E-01   0.713E-06 -.726E-03 0.129E-02
   0.118E+01 -.366E+01 0.111E+01   -.117E+01 0.366E+01 -.111E+01   -.947E-02 0.119E-02 0.350E-02   -.199E-02 0.404E-06 -.330E-03
   0.377E+01 0.807E+00 0.111E+01   -.376E+01 -.817E+00 -.111E+01   -.577E-02 0.760E-02 0.350E-02   -.995E-03 0.172E-02 -.330E-03
   -.319E-03 0.512E-01 0.264E+00   -.189E-10 -.606E-01 -.265E+00   0.219E-17 0.759E-02 -.161E-02   -.183E-06 0.228E-02 0.617E-03
   0.547E+00 0.316E+00 -.943E+00   -.544E+00 -.314E+00 0.943E+00   -.131E-02 -.755E-03 -.182E-02   -.102E-02 -.585E-03 0.711E-03
   -.118E+01 -.366E+01 -.111E+01   0.117E+01 0.366E+01 0.111E+01   0.947E-02 0.119E-02 -.350E-02   0.199E-02 -.397E-06 0.330E-03
   -.657E+01 0.379E+01 -.707E+01   0.657E+01 -.379E+01 0.708E+01   0.417E-02 -.241E-02 -.856E-02   -.334E-05 0.916E-06 -.101E-02
   0.657E+01 0.379E+01 -.707E+01   -.657E+01 -.379E+01 0.708E+01   -.417E-02 -.241E-02 -.856E-02   0.400E-05 0.507E-06 -.101E-02
   0.161E+01 -.142E+01 0.339E+00   -.160E+01 0.142E+01 -.344E+00   -.698E-02 -.107E-02 0.227E-02   -.300E-02 0.103E-03 -.252E-05
   -.657E+01 0.379E+01 0.706E+01   0.657E+01 -.379E+01 -.708E+01   0.417E-02 -.241E-02 0.856E-02   -.341E-05 0.931E-06 0.101E-02
   -.547E+00 0.316E+00 0.939E+00   0.544E+00 -.314E+00 -.943E+00   0.131E-02 -.755E-03 0.182E-02   0.102E-02 -.587E-03 -.711E-03
   -.971E+00 0.561E+00 -.101E+00   0.972E+00 -.561E+00 0.100E+00   -.779E-03 0.450E-03 -.188E-03   -.736E-04 0.420E-04 -.952E-03
   -.278E+01 -.161E+01 -.100E+00   0.278E+01 0.160E+01 0.982E-01   0.509E-02 0.294E-02 -.435E-04   0.231E-02 0.133E-02 0.434E-03
   -.648E-04 -.759E+01 0.706E+01   -.121E-10 0.758E+01 -.708E+01   0.132E-17 0.481E-02 0.856E-02   0.589E-06 -.439E-05 0.101E-02
   -.189E+01 0.624E+01 0.315E+01   0.189E+01 -.622E+01 -.314E+01   -.381E-02 -.173E-01 -.377E-02   -.446E-03 -.237E-02 0.402E-03
   0.258E+01 0.286E+01 0.111E+01   -.259E+01 -.285E+01 -.111E+01   0.370E-02 -.880E-02 0.350E-02   0.996E-03 -.172E-02 -.330E-03
   0.278E+01 -.161E+01 -.999E-01   -.278E+01 0.160E+01 0.982E-01   -.509E-02 0.294E-02 -.435E-04   -.231E-02 0.133E-02 0.434E-03
   0.971E+00 0.560E+00 0.970E-01   -.972E+00 -.561E+00 -.100E+00   0.779E-03 0.450E-03 0.188E-03   0.736E-04 0.412E-04 0.952E-03
   -.258E+01 0.286E+01 -.111E+01   0.259E+01 -.285E+01 0.111E+01   -.370E-02 -.880E-02 -.350E-02   -.995E-03 -.172E-02 0.330E-03
   -.446E+01 -.475E+01 -.315E+01   0.444E+01 0.475E+01 0.314E+01   0.169E-01 0.536E-02 0.377E-02   0.228E-02 0.798E-03 -.402E-03
   0.189E+01 0.624E+01 -.315E+01   -.189E+01 -.622E+01 0.314E+01   0.381E-02 -.173E-01 0.377E-02   0.446E-03 -.237E-02 -.402E-03
   0.446E+01 -.475E+01 -.315E+01   -.444E+01 0.475E+01 0.314E+01   -.169E-01 0.536E-02 0.377E-02   -.228E-02 0.799E-03 -.402E-03
   -.625E-04 -.632E+00 0.939E+00   -.478E-11 0.628E+00 -.943E+00   0.454E-18 0.151E-02 0.182E-02   -.881E-06 0.117E-02 -.711E-03
   -.203E+01 -.686E+00 -.343E+00   0.203E+01 0.676E+00 0.344E+00   0.256E-02 0.658E-02 -.227E-02   0.159E-02 0.255E-02 0.279E-05
   0.279E-03 -.112E+01 -.101E+00   0.216E-10 0.112E+01 0.100E+00   -.255E-18 -.899E-03 -.188E-03   -.215E-06 -.836E-04 -.952E-03
   -.422E+00 0.210E+01 -.343E+00   0.429E+00 -.210E+01 0.344E+00   -.442E-02 -.551E-02 -.227E-02   -.141E-02 -.265E-02 0.290E-05
   -.614E+01 -.354E+01 0.141E+02   0.607E+01 0.351E+01 -.142E+02   0.581E-01 0.335E-01 0.165E-01   0.629E-03 0.362E-03 0.129E-02
   0.422E+00 0.210E+01 -.343E+00   -.429E+00 -.210E+01 0.344E+00   0.442E-02 -.551E-02 -.227E-02   0.141E-02 -.265E-02 0.252E-05
   0.441E-01 -.255E-01 0.264E+00   -.525E-01 0.303E-01 -.265E+00   0.657E-02 -.379E-02 -.161E-02   0.198E-02 -.114E-02 0.616E-03
[...]
   -.252E+00 0.145E+00 0.284E+00   0.246E+00 -.142E+00 -.285E+00   0.310E-02 -.179E-02 -.257E-03   0.124E-02 -.719E-03 0.158E-03
   0.499E+01 -.135E+00 0.515E+01   -.496E+01 0.139E+00 -.516E+01   -.237E-01 -.396E-02 0.221E-02   -.480E-03 0.365E-03 0.449E-03
   0.235E+00 -.988E+00 -.285E-01   -.232E+00 0.986E+00 0.276E-01   -.104E-02 0.114E-02 -.888E-04   -.671E-03 -.220E-03 0.460E-03
   -.257E+01 -.272E+00 -.645E+00   0.256E+01 0.267E+00 0.645E+00   0.321E-02 0.290E-02 -.606E-03   0.664E-03 0.102E-02 0.144E-04
   -.973E+00 0.291E+00 -.285E-01   0.970E+00 -.292E+00 0.276E-01   0.151E-02 0.333E-03 -.888E-04   0.145E-03 0.690E-03 0.460E-03
   0.306E-04 -.174E-04 -.104E+02   -.179E-11 0.744E-11 0.104E+02   -.185E-20 0.192E-17 0.113E-01   0.470E-06 -.339E-06 -.638E-03
   -.147E-02 0.117E+01 0.293E+00   0.278E-02 -.117E+01 -.294E+00   -.103E-02 -.257E-02 0.325E-03   -.513E-03 -.107E-02 -.324E-03
   0.257E+01 -.272E+00 -.645E+00   -.256E+01 0.267E+00 0.645E+00   -.321E-02 0.290E-02 -.606E-03   -.665E-03 0.102E-02 0.146E-04
   0.973E+00 0.290E+00 0.275E-01   -.970E+00 -.292E+00 -.276E-01   -.151E-02 0.333E-03 0.888E-04   -.145E-03 0.691E-03 -.460E-03
   -.152E+01 -.209E+01 0.644E+00   0.151E+01 0.209E+01 -.645E+00   0.412E-02 0.134E-02 0.606E-03   0.121E-02 0.665E-04 -.144E-04
   0.238E+01 0.439E+01 0.515E+01   -.236E+01 -.437E+01 -.516E+01   -.153E-01 -.185E-01 0.221E-02   0.765E-04 -.599E-03 0.449E-03
   0.152E+01 -.209E+01 0.644E+00   -.151E+01 0.209E+01 -.645E+00   -.412E-02 0.134E-02 0.606E-03   -.121E-02 0.667E-04 -.143E-04
   0.165E-03 -.955E-04 -.544E+00   0.204E-10 -.106E-10 0.544E+00   -.104E-20 -.152E-19 -.936E-04   -.191E-06 0.295E-06 0.585E-03
   0.200E-05 -.666E-06 -.162E-03   -.106E-11 0.243E-11 0.977E-14   0.348E-21 -.140E-21 0.219E-21   -.728E-06 -.492E-06 -.305E-07
   0.192E-04 -.152E-04 -.426E-02   0.433E-12 -.339E-12 0.126E-12   -.157E-14 0.332E-14 0.146E-16   -.132E-04 0.935E-05 0.133E-05

 POSITION                                       TOTAL-FORCE (eV/Angst)
      1.24466      0.71857      1.66741         0.001088      0.001025     -0.000430
      4.97877      7.18614      1.66875        -0.000000     -0.000668      0.002316
      6.22346      0.71861      1.66776        -0.001336      0.001437      0.000291
      9.95755      7.18624      1.66776        -0.001913      0.000439      0.000291
     11.20222      0.71862      1.66738         0.000504      0.000291     -0.000485
     -3.73408      9.34211      8.33833        -0.000457     -0.000264      0.000024
      1.24468      9.34211      8.33820         0.000577     -0.001876     -0.000291
      2.48937      2.87441      8.33862         0.001754      0.001485     -0.000297
      6.22353      9.34217      8.33862        -0.000409     -0.002262     -0.000297
      7.46817      2.87441      8.33862        -0.001754      0.001485     -0.000297
     12.44693      2.87451      8.33857        -0.000000     -0.000582      0.000485
     -1.24469      9.34211      1.66763         0.000457     -0.000264     -0.000024
     -0.00001      2.87449      1.66741         0.000934      0.000539     -0.000747
      4.97877      2.87460      1.66848         0.000000      0.001110      0.002754
      3.73401      9.34217      1.66734         0.000409     -0.002262      0.000297
      8.71286      9.34211      1.66776        -0.000577     -0.001876      0.000291
      9.95755      2.87449      1.66741        -0.000934      0.000539     -0.000747
     -4.97878     11.49798      8.33828         0.000644     -0.000372     -0.000131
      0.00001     11.49798      8.33828        -0.000644     -0.000372     -0.000131
      1.24461      5.03039      8.33862         0.002163      0.000776     -0.000297
      6.22338      5.03041      8.33720        -0.000579      0.000334     -0.002316
      4.97877     11.49799      8.33855        -0.000000     -0.001079      0.000747
     11.20230      5.03036      8.33855        -0.001432      0.000430      0.000430
     -1.24476      5.03036      1.66741         0.001432      0.000430     -0.000430
     -2.48939     11.49798      1.66763         0.000000      0.000527     -0.000024
      2.48936     11.49804      1.66741         0.000344     -0.001455     -0.000430
      3.73416      5.03041      1.66875         0.000579      0.000334      0.002316
      7.46819     11.49804      1.66741        -0.000344     -0.001455     -0.000430
      8.71293      5.03039      1.66734        -0.002163      0.000776      0.000297
     -0.00001      7.18624      8.33820         0.001913      0.000439     -0.000291
      1.24466      0.71857      8.33855         0.001088      0.001025      0.000430
      4.97877      7.18614      8.33720        -0.000000     -0.000668     -0.002316
      6.22346      0.71861      8.33820        -0.001336      0.001437     -0.000291
      9.95755      7.18624      8.33820        -0.001913      0.000439     -0.000291
     -2.48939      7.18623      1.66768         0.000000      0.000743      0.000131
     11.20222      0.71862      8.33857         0.000504      0.000291      0.000485
      3.73408      0.71861      1.66776         0.001336      0.001437      0.000291
      2.48948      7.18619      1.66848         0.000961     -0.000555      0.002754
      7.46807      7.18619      1.66848        -0.000961     -0.000555      0.002754
      8.71289      0.71857      1.66741        -0.001088      0.001025     -0.000430
      2.48948      7.18619      8.33748         0.000961     -0.000555     -0.002754
     13.69163      0.71862      1.66738        -0.000504      0.000291     -0.000485
     -1.24469      9.34211      8.33833         0.000457     -0.000264      0.000024
     -0.00001      2.87449      8.33855         0.000934      0.000539      0.000747
      4.97877      2.87460      8.33748         0.000000      0.001110     -0.002754
      3.73401      9.34217      8.33862         0.000409     -0.002262     -0.000297
      8.71286      9.34211      8.33820        -0.000577     -0.001876     -0.000291
      9.95755      2.87449      8.33855        -0.000934      0.000539      0.000747
     -3.73408      9.34211      1.66763        -0.000457     -0.000264     -0.000024
      1.24468      9.34211      1.66776         0.000577     -0.001876      0.000291
      2.48937      2.87441      1.66734         0.001754      0.001485      0.000297
      6.22353      9.34217      1.66734        -0.000409     -0.002262      0.000297
      7.46817      2.87441      1.66734        -0.001754      0.001485      0.000297
     12.44693      2.87451      1.66738        -0.000000     -0.000582     -0.000485
     -1.24476      5.03036      8.33855         0.001432      0.000430      0.000430
     -2.48939     11.49798      8.33833         0.000000      0.000527      0.000024
      2.48936     11.49804      8.33855         0.000344     -0.001455      0.000430
      3.73416      5.03041      8.33720         0.000579      0.000334     -0.002316
      7.46819     11.49804      8.33855        -0.000344     -0.001455      0.000430
     -4.97878     11.49798      1.66768         0.000644     -0.000372      0.000131
[...]
      6.22344     12.21667      8.33831         0.000468      0.000456      0.000539
     -6.22353     12.21664      1.66761        -0.000616      0.000356     -0.000401
      7.46872      5.74915      8.33737         0.001242     -0.000618     -0.001837
     -1.24467     12.21656      1.66768         0.000832     -0.000998      0.000142
     -0.00010      5.74894      1.66766        -0.002779     -0.001453     -0.000009
     -1.24474      7.90486      1.66768        -0.001280     -0.000222      0.000142
      4.97877      5.74899      1.66528        -0.000000      0.000000      0.002734
      3.73410     12.21667      1.66765        -0.000468      0.000456     -0.000539
      9.95764      5.74894      1.66766         0.002779     -0.001453     -0.000009
     -3.73403      7.90486      8.33828         0.001280     -0.000222     -0.000142
      2.48930      1.43719      8.33830        -0.002647     -0.001680      0.000009
      6.22389      7.90527      8.33737         0.000085      0.001385     -0.001837
      7.46825      1.43719      8.33830         0.002647     -0.001680      0.000009
     12.44693      1.43725      8.33832        -0.000000      0.000000      0.000427
      4.97877      5.74899      5.00298        -0.000000      0.000000      0.000000
    total drift:                                0.000006     -0.000006     -0.004262

  FREE ENERGIE OF THE ION-ELECTRON SYSTEM (eV)
  free  energy   TOTEN  =     -3069.12579009 eV

  energy  without entropy=    -3069.12579009  energy(sigma->0) =    -3069.12579009

 d Force = 0.3999145E-04[-0.602E-05, 0.860E-04]  d Energy = 0.4048672E-04-0.495E-06
 d Force =-0.1763163E-01[-0.178E-01,-0.174E-01]  d Ewald  =-0.1763162E-01-0.346E-08

 stress matrix after NEB project (eV)
     22.40894      0.00000      0.00000
      0.00000     22.40894     -0.00000
      0.00000     -0.00000      0.79136
  FORCES: max atom, RMS     0.004283    0.002012
  FORCE total and by dimension    0.034142    0.004259
  Stress total and by dimension   31.700908   22.408941
 Quasi-Newton relaxation of ions (Broydens 2nd method)
  g(Force)  = 0.337E-04   g(Stress)= 0.000E+00

 retain information from N=  6 steps
 eigenvalues of (default step * inverse Hessian matrix)
  average eigenvalue of G=   1.5226
 eigenvalue spectrum of G is  3.5954  3.5954  0.5780  0.5832  0.3917  0.3917

 reached required accuracy - stopping structural energy minimisation
 writing wavefunctions

 total charge

[...]

 magnetization (x)

# of ion       s       p       d       tot
    1        0.000   0.000   0.000   0.000
    2        0.000  -0.000   0.000  -0.000
    3       -0.000   0.000   0.000   0.000
    4       -0.000   0.000   0.000   0.000
    5       -0.000  -0.000   0.000  -0.000
    6       -0.000   0.000   0.000   0.000
    7       -0.000   0.000   0.000   0.000
    8       -0.000   0.000   0.000   0.000
    9       -0.000   0.000   0.000   0.000
   10       -0.000   0.000   0.000   0.000
   11       -0.000  -0.000   0.000  -0.000
   12       -0.000   0.000   0.000   0.000
   13       -0.000  -0.000   0.000  -0.000
   14       -0.000   0.000   0.000   0.000
   15       -0.000   0.000   0.000   0.000
   16       -0.000   0.000   0.000   0.000
   17       -0.000  -0.000   0.000  -0.000
   18        0.000   0.000   0.000   0.000
   19        0.000   0.000   0.000   0.000
   20       -0.000   0.000   0.000   0.000
   21        0.000  -0.000   0.000  -0.000
   22       -0.000  -0.000   0.000  -0.000
   23        0.000   0.000   0.000   0.000
   24        0.000   0.000   0.000   0.000
   25       -0.000   0.000   0.000   0.000
   26        0.000   0.000   0.000   0.000
   27        0.000  -0.000   0.000  -0.000
   28        0.000   0.000   0.000   0.000
   29       -0.000   0.000   0.000   0.000
   30       -0.000   0.000   0.000   0.000
   31        0.000   0.000   0.000   0.000
   32        0.000  -0.000   0.000  -0.000
   33       -0.000   0.000   0.000   0.000
   34       -0.000   0.000   0.000   0.000
   35        0.000   0.000   0.000   0.000
   36       -0.000  -0.000   0.000  -0.000
   37       -0.000   0.000   0.000   0.000
   38       -0.000   0.000   0.000   0.000
   39       -0.000   0.000   0.000   0.000
   40        0.000   0.000   0.000   0.000
   41       -0.000   0.000   0.000   0.000
   42       -0.000  -0.000   0.000  -0.000
   43       -0.000   0.000   0.000   0.000
   44       -0.000  -0.000   0.000  -0.000
   45       -0.000   0.000   0.000   0.000
   46       -0.000   0.000   0.000   0.000
   47       -0.000   0.000   0.000   0.000
   48       -0.000  -0.000   0.000  -0.000
   49       -0.000   0.000   0.000   0.000
   50       -0.000   0.000   0.000   0.000
   51       -0.000   0.000   0.000   0.000
   52       -0.000   0.000   0.000   0.000
   53       -0.000   0.000   0.000   0.000
   54       -0.000  -0.000   0.000  -0.000
   55        0.000   0.000   0.000   0.000
   56       -0.000   0.000   0.000   0.000
   57        0.000   0.000   0.000   0.000
   58        0.000  -0.000   0.000  -0.000
   59        0.000   0.000   0.000   0.000
   60        0.000   0.000   0.000   0.000
[...]
  274        0.000  -0.000   0.000  -0.000
  275        0.000  -0.000   0.000  -0.000
  276       -0.000  -0.000   0.000  -0.000
  277       -0.000  -0.000   0.000  -0.000
  278       -0.000  -0.000   0.000  -0.000
  279       -0.000  -0.000   0.000  -0.000
  280        0.000  -0.000   0.000  -0.000
  281        0.000  -0.000   0.000  -0.000
  282       -0.000  -0.000   0.000  -0.000
  283       -0.000  -0.000   0.000  -0.000
  284       -0.000  -0.000   0.000  -0.000
  285       -0.000  -0.000   0.000  -0.000
  286       -0.000  -0.000   0.000  -0.000
  287        0.000   0.000   0.000   0.000
  288        0.000   0.000   0.000   0.000
tot         -0.000  -0.000   0.000  -0.000