 vasp.6.4.2 20Jul23 (build Nov 06 2023 14:18:49) gamma-only

 executed on             LinuxIFC date 2024.10.07  02:41:29

 INCAR:
   FERWE = 574*1 0 1 308*0
   FERDO = 575*1 309*0
   NBANDS = 884
   NCORE = 24
   LREAL = Auto
   ISTART = 0
   ICHARG = 2
   LORBIT = 11
   ENCUT = 500
   EDIFF = 1E-4
   NELM = 60
   NELMIN = 4
   IBRION = 1
   NSW = 900
   POTIM = 0.3
   ISIF = 2
   EDIFFG = -1E-2
   ADDGRID = .TRUE.
   ISMEAR = -2
   IVDW = 11
   VDW_S8 = 0.109
   VDW_SR = 1.129
   ISPIN = 2
   GGA = PE
   LHFCALC = .TRUE.
   AEXX = 0.32
   HFSCREEN = 0.2
   ALGO = Normal
   TIME = 0.4
   PRECFOCK = Fast

 POTCAR:    PAW_PBE N 08Apr2002
 POTCAR:    PAW_PBE B 06Sep2000
|           W    W    AA    RRRRR   N    N  II  N    N   GGGG   !!!           |
|           W    W   A  A   R    R  NN   N  II  NN   N  G    G  !!!           |
|           W    W  A    A  R    R  N N  N  II  N N  N  G       !!!           |
|           W WW W  AAAAAA  RRRRR   N  N N  II  N  N N  G  GGG   !            |
|           WW  WW  A    A  R   R   N   NN  II  N   NN  G    G                |
|           W    W  A    A  R    R  N    N  II  N    N   GGGG   !!!           |
|     You use a magnetic or noncollinear calculation, but did not specify     |
|     the initial magnetic moment with the MAGMOM tag. Note that a            |
|     default of 1 will be used for all atoms. This ferromagnetic setup       |
|     may break the symmetry of the crystal, in particular it may rule        |
|     out finding an antiferromagnetic solution. Thence, we recommend         |
|     setting the initial magnetic moment manually or verifying carefully     |
|     that this magnetic setup is desired.                                    |

   TITEL  = PAW_PBE N 08Apr2002
   POMASS =   14.001; ZVAL   =    5.000    mass and valenz
   ENMAX  =  400.000; ENMIN  =  300.000 eV

   TITEL  = PAW_PBE B 06Sep2000
   POMASS =   10.811; ZVAL   =    3.000    mass and valenz
   ENMAX  =  318.614; ENMIN  =  238.960 eV

 Optimization of the real space projectors (new method)

 maximal supplied QI-value         = 25.13
 optimisation between [QCUT,QGAM] = [ 11.31, 22.87] = [ 35.82,146.48] Ry
 Optimized for a Real-space Cutoff    1.27 Angstroem

   l    n(q)    QCUT    max X(q) W(low)/X(q) W(high)/X(q)  e(spline)
   0      9    11.310    79.467    0.75E-04    0.16E-03    0.36E-06
   0      9    11.310    66.151    0.74E-04    0.16E-03    0.36E-06
   1      8    11.310    17.416    0.35E-03    0.12E-03    0.95E-06
   1      8    11.310    12.382    0.37E-03    0.13E-03    0.98E-06
 Optimization of the real space projectors (new method)

 maximal supplied QI-value         = 22.11
 optimisation between [QCUT,QGAM] = [ 11.28, 22.77] = [ 35.61,145.23] Ry
 Optimized for a Real-space Cutoff    1.16 Angstroem

   l    n(q)    QCUT    max X(q) W(low)/X(q) W(high)/X(q)  e(spline)
   0      8    11.276    53.033    0.48E-03    0.56E-03    0.11E-06
   0      8    11.276    34.740    0.48E-03    0.55E-03    0.11E-06
   1      7    11.276    30.949    0.26E-03    0.19E-04    0.19E-06
   1      7    11.276    19.518    0.24E-03    0.14E-04    0.18E-06
  PAW_PBE N 08Apr2002                   :
  PAW_PBE B 06Sep2000                   :

 POSCAR: Species order: X N B
  positions in direct lattice
  velocities in cartesian coordinates
 exchange correlation table for  LEXCH =        8
   RHO(1)=    0.500       N(1)  =     2000
   RHO(2)=  100.500       N(2)  =     4000

 VTST: version 4.1, (05/19/21)

 CHAIN: initializing optimizer

 OPT: Using VASP QUASI-newton optimizer
 CHAIN: Read ICHAIN            0

 POSCAR: Species order: X N B
  positions in direct lattice
  velocities in cartesian coordinates

 ion  position               nearest neighbor table
   1  0.111  0.056  0.125- 275 1.44 252 1.44 216 1.44
   2  0.611  0.556  0.125- 280 1.44 254 1.44 217 1.44
   3  0.444  0.056  0.125- 218 1.44 277 1.44 255 1.44
   4  0.944  0.556  0.125- 219 1.44 250 1.44 282 1.44
   5  0.778  0.056  0.125- 220 1.44 281 1.44 257 1.44
   6  0.111  0.722  0.625- 258 1.44 283 1.44 221 1.44
   7  0.444  0.722  0.625- 256 1.44 222 1.44 261 1.44
   8  0.278  0.222  0.625- 260 1.44 284 1.44 223 1.44
   9  0.778  0.722  0.625- 285 1.44 262 1.44 224 1.44
  10  0.611  0.222  0.625- 225 1.44 286 1.44 263 1.44
  11  0.944  0.222  0.625- 226 1.44 259 1.44 287 1.44
  12  0.278  0.722  0.125- 227 1.44 265 1.44 279 1.44
  13  0.111  0.222  0.125- 266 1.44 216 1.44 228 1.44
  14  0.444  0.222  0.125- 268 1.44 229 1.44 218 1.44
  15  0.611  0.722  0.125- 217 1.44 230 1.44 267 1.44
  16  0.944  0.722  0.125- 219 1.44 264 1.44 231 1.44
  17  0.778  0.222  0.125- 232 1.44 269 1.44 220 1.44
  18  0.111  0.889  0.625- 271 1.44 221 1.44 233 1.44
  19  0.444  0.889  0.625- 222 1.44 234 1.44 272 1.44
  20  0.278  0.389  0.625- 273 1.44 235 1.44 223 1.44
  21  0.611  0.389  0.625- 236 1.44 276 1.44 225 1.44
  22  0.778  0.889  0.625- 224 1.44 274 1.44 237 1.44
  23  0.944  0.389  0.625- 270 1.44 238 1.44 226 1.44
  24  0.111  0.389  0.125- 239 1.44 278 1.44 228 1.44
  25  0.278  0.889  0.125- 227 1.44 277 1.44 240 1.44
  26  0.611  0.889  0.125- 241 1.44 230 1.44 281 1.44
  27  0.444  0.389  0.125- 280 1.44 229 1.44 242 1.44
  28  0.944  0.889  0.125- 275 1.44 231 1.44 243 1.44
  29  0.778  0.389  0.125- 244 1.44 282 1.44 232 1.44
  30  0.278  0.556  0.625- 256 1.44 245 1.44 235 1.44
  31  0.111  0.056  0.625- 233 1.44 284 1.44 246 1.44
  32  0.611  0.556  0.625- 236 1.44 285 1.44 247 1.44
  33  0.444  0.056  0.625- 248 1.44 234 1.44 286 1.44
  34  0.944  0.556  0.625- 249 1.44 283 1.44 238 1.44
  35  0.111  0.556  0.125- 279 1.44 250 1.44 239 1.44
  36  0.778  0.056  0.625- 251 1.44 237 1.44 287 1.44
  37  0.278  0.056  0.125- 218 1.44 240 1.44 252 1.44
  38  0.444  0.556  0.125- 217 1.44 242 1.44 253 1.44
  39  0.778  0.556  0.125- 244 1.44 254 1.44 219 1.44
  40  0.611  0.056  0.125- 241 1.44 255 1.44 220 1.44
  41  0.444  0.556  0.625- 247 1.44 273 1.44 256 1.44
  42  0.944  0.056  0.125- 216 1.44 243 1.44 257 1.44
  43  0.278  0.722  0.625- 258 1.44 222 1.44 245 1.44
  44  0.111  0.222  0.625- 223 1.44 246 1.44 259 1.44
  45  0.444  0.222  0.625- 225 1.44 260 1.44 248 1.44
  46  0.611  0.722  0.625- 247 1.44 261 1.44 224 1.44
  47  0.944  0.722  0.625- 249 1.44 221 1.44 262 1.44
  48  0.778  0.222  0.625- 263 1.44 226 1.44 251 1.44
  49  0.111  0.722  0.125- 227 1.44 250 1.44 264 1.44
  50  0.444  0.722  0.125- 253 1.44 265 1.44 230 1.44
  51  0.278  0.222  0.125- 229 1.44 252 1.44 266 1.44
  52  0.778  0.722  0.125- 254 1.44 231 1.44 267 1.44
  53  0.611  0.222  0.125- 268 1.44 255 1.44 232 1.44
  54  0.944  0.222  0.125- 269 1.44 228 1.44 257 1.44
  55  0.111  0.389  0.625- 270 1.44 235 1.44 259 1.44
  56  0.278  0.889  0.625- 258 1.44 234 1.44 271 1.44
  57  0.611  0.889  0.625- 272 1.44 261 1.44 237 1.44
  58  0.444  0.389  0.625- 236 1.44 260 1.44 273 1.44
  59  0.944  0.889  0.625- 233 1.44 262 1.44 274 1.44
  60  0.111  0.889  0.125- 240 1.44 264 1.44 275 1.44
[...]
 274  0.889  0.944  0.625-  72 1.44  22 1.44  59 1.44
 275  0.056  0.944  0.125-  28 1.44   1 1.44  60 1.44
 276  0.722  0.444  0.625-  61 1.44  70 1.44  21 1.44
 277  0.389  0.944  0.125-  62 1.44  25 1.44   3 1.44
 278  0.222  0.444  0.125-  24 1.44  63 1.44  64 1.44
 279  0.222  0.611  0.125-  35 1.44  12 1.44  64 1.44
 280  0.556  0.444  0.125-  65 1.44  27 1.44   2 1.44
 281  0.722  0.944  0.125-   5 1.44  66 1.44  26 1.44
 282  0.889  0.444  0.125-  67 1.44  29 1.44   4 1.44
 283  0.056  0.611  0.625-  68 1.44   6 1.44  34 1.44
 284  0.222  0.111  0.625-  31 1.44   8 1.44  69 1.44
 285  0.722  0.611  0.625-   9 1.44  70 1.44  32 1.44
 286  0.556  0.111  0.625-  71 1.44  10 1.44  33 1.44
 287  0.889  0.111  0.625-  36 1.44  11 1.44  72 1.44
 288  0.556  0.444  0.375- 208 1.59 170 1.59 145 1.59

  LATTYP: Found a hexagonal cell.
 ALAT       =    14.9363141462
 C/A-ratio  =     0.8932107448

  Lattice vectors:

 A1 = (  14.9363141462,   0.0000000000,   0.0000000000)
 A2 = (  -7.4681570731,  12.9352274895,  -0.0000000000)
 A3 = (   0.0000000000,   0.0000000000,  13.3412762838)

Analysis of symmetry for initial positions (statically):
 Subroutine PRICEL returns:
 Original cell was already a primitive cell.

 Routine SETGRP: Setting up the symmetry group for a
 hexagonal supercell.

 Subroutine GETGRP returns: Found 12 space group operations
 (whereof  2 operations were pure point group operations)
 out of a pool of 24 trial point group operations.

The static configuration has the point symmetry C_1h.
 The point group associated with its full space group is D_3h.

Analysis of symmetry for dynamics (positions and initial velocities):
 Subroutine PRICEL returns:
 Original cell was already a primitive cell.

[...]

The dynamic configuration has the point symmetry C_1h.
 The point group associated with its full space group is D_3h.

Analysis of structural, dynamic, and magnetic symmetry:
 Subroutine PRICEL returns:
 Original cell was already a primitive cell.

 Routine SETGRP: Setting up the symmetry group for a
 hexagonal supercell.

 Subroutine GETGRP returns: Found 12 space group operations
 (whereof  2 operations were pure point group operations)
 out of a pool of 24 trial point group operations.

The overall configuration has the point symmetry C_1h.
 The point group associated with its full space group is D_3h.

 Subroutine INISYM returns: Found 12 space group operations
 (whereof  2 operations are pure point group operations),
 and found     1 'primitive' translations

                                     Primitive cell

  volume of cell :    2577.5962

  direct lattice vectors                    reciprocal lattice vectors
    14.936314146  0.000000000  0.000000000     0.066950922  0.038654133 -0.000000000
    -7.468157073 12.935227490 -0.000000000     0.000000000  0.077308265 -0.000000000
     0.000000000  0.000000000 13.341276284     0.000000000  0.000000000  0.074955348

  length of vectors
    14.936314146 14.936314146 13.341276284     0.077308265  0.077308265  0.074955348

  position of ions in fractional coordinates (direct lattice)
     0.111106510  0.055551225  0.124981061
     0.611107532  0.555548396  0.125081912
     0.444443879  0.055554826  0.125007569
     0.944445174  0.555556121  0.125007569
     0.777776689  0.055555011  0.124979411
     0.111111218  0.722222276  0.625002231
     0.444443879  0.722222386  0.624992431
     0.277773360  0.222215729  0.625023875
     0.777784271  0.722226640  0.625023875
     0.611109035  0.222215729  0.625023875
     0.944444989  0.222223311  0.625020589
     0.277777724  0.722222276  0.124997769
     0.111110175  0.222221754  0.124981172
     0.444448487  0.222230308  0.125061149
     0.611109035  0.722226640  0.124976125
     0.944445174  0.722222386  0.125007569
     0.777778246  0.222221754  0.124981172
     0.111110844  0.888889156  0.624998693
     0.444444980  0.888889156  0.624998693
     0.277773360  0.388890965  0.625023875
     0.611107532  0.388892468  0.624918088
     0.777778246  0.888889825  0.625018828
     0.944448775  0.388888618  0.625018939
     0.111106510  0.388888618  0.124981061
     0.277777724  0.888888782  0.124997769
     0.611111382  0.888893490  0.124981061
[...]
   -.163E+01 -.139E+01 -.412E+00   0.163E+01 0.141E+01 0.371E+00   -.103E-02 -.601E-02 -.349E-02   -.224E-02 -.194E-01 0.450E-01
   -.258E-01 0.746E+01 0.137E+02   0.987E-11 -.726E+01 -.137E+02   0.600E-17 0.206E-01 0.177E-01   0.285E-01 -.219E+00 -.302E-01
   0.122E+01 -.368E+01 0.107E+01   -.120E+01 0.368E+01 -.108E+01   -.195E-03 -.116E-01 0.579E-02   -.105E-01 0.132E-01 0.604E-02
   0.379E+01 0.780E+00 0.106E+01   -.379E+01 -.797E+00 -.108E+01   0.997E-02 0.598E-02 0.579E-02   -.192E-01 0.936E-02 0.152E-01
   -.376E-03 0.168E-01 0.292E+00   0.236E-10 -.405E-01 -.282E+00   0.115E-17 0.440E-02 -.304E-02   0.159E-03 0.192E-01 -.796E-02
   0.554E+00 0.319E+00 -.983E+00   -.554E+00 -.320E+00 0.967E+00   -.381E-03 -.220E-03 -.285E-02   0.142E-02 0.134E-02 0.162E-01
   -.124E+01 -.365E+01 -.105E+01   0.120E+01 0.368E+01 0.108E+01   0.195E-03 -.116E-01 -.579E-02   0.347E-01 -.204E-01 -.356E-01
   -.664E+01 0.379E+01 -.700E+01   0.662E+01 -.382E+01 0.711E+01   -.303E-01 0.175E-01 -.311E-01   0.588E-01 0.215E-01 -.806E-01
   0.666E+01 0.388E+01 -.704E+01   -.662E+01 -.382E+01 0.711E+01   0.303E-01 0.175E-01 -.311E-01   -.753E-01 -.874E-01 -.394E-01
   0.164E+01 -.141E+01 0.389E+00   -.163E+01 0.141E+01 -.371E+00   0.103E-02 -.601E-02 0.349E-02   -.132E-01 0.339E-02 -.218E-01
   -.664E+01 0.379E+01 0.700E+01   0.662E+01 -.382E+01 -.711E+01   -.303E-01 0.175E-01 0.311E-01   0.588E-01 0.215E-01 0.805E-01
   -.545E+00 0.319E+00 0.979E+00   0.554E+00 -.320E+00 -.967E+00   0.381E-03 -.220E-03 0.285E-02   -.101E-01 0.121E-02 -.177E-01
   -.971E+00 0.559E+00 -.116E+00   0.971E+00 -.561E+00 0.119E+00   -.323E-02 0.186E-02 0.151E-02   0.301E-02 -.102E-03 -.731E-02
   -.277E+01 -.161E+01 -.183E+00   0.280E+01 0.162E+01 0.137E+00   -.755E-02 -.436E-02 -.161E-02   -.268E-01 -.936E-02 0.492E-01
   -.731E-01 -.768E+01 0.700E+01   -.237E-10 0.764E+01 -.711E+01   -.976E-17 -.350E-01 0.311E-01   0.861E-01 0.724E-01 0.729E-01
   -.184E+01 0.633E+01 0.307E+01   0.186E+01 -.631E+01 -.314E+01   -.887E-02 0.246E-01 0.232E-03   -.775E-02 -.488E-01 0.597E-01
   0.256E+01 0.290E+01 0.105E+01   -.258E+01 -.288E+01 -.108E+01   0.102E-01 0.565E-02 0.579E-02   0.159E-01 -.231E-01 0.285E-01
   0.281E+01 -.162E+01 -.162E+00   -.280E+01 0.162E+01 0.137E+00   0.755E-02 -.436E-02 -.161E-02   -.170E-01 0.657E-02 0.227E-01
   0.964E+00 0.559E+00 0.115E+00   -.971E+00 -.561E+00 -.119E+00   0.323E-02 0.186E-02 -.151E-02   0.379E-02 -.723E-03 0.300E-02
   -.257E+01 0.289E+01 -.107E+01   0.258E+01 -.288E+01 0.108E+01   -.102E-01 0.565E-02 -.579E-02   -.328E-02 -.202E-01 -.266E-02
   -.454E+01 -.473E+01 -.298E+01   0.454E+01 0.477E+01 0.314E+01   -.169E-01 -.200E-01 -.232E-03   0.174E-01 -.208E-01 -.173E+00
   0.186E+01 0.634E+01 -.304E+01   -.186E+01 -.631E+01 0.314E+01   0.887E-02 0.246E-01 -.232E-03   -.120E-01 -.496E-01 -.101E+00
   0.457E+01 -.480E+01 -.311E+01   -.454E+01 0.477E+01 0.314E+01   0.169E-01 -.200E-01 -.232E-03   -.555E-01 0.660E-01 -.107E-01
   0.471E-02 -.636E+00 0.979E+00   -.461E-11 0.640E+00 -.967E+00   0.102E-18 0.440E-03 0.285E-02   -.445E-02 -.552E-02 -.170E-01
   -.202E+01 -.723E+00 -.404E+00   0.204E+01 0.707E+00 0.371E+00   -.572E-02 0.211E-02 -.349E-02   -.117E-01 0.129E-01 0.351E-01
   -.381E-02 -.111E+01 -.118E+00   -.503E-10 0.112E+01 0.119E+00   -.103E-17 -.373E-02 0.151E-02   0.409E-02 -.376E-02 -.406E-02
   -.392E+00 0.212E+01 -.394E+00   0.406E+00 -.212E+01 0.371E+00   -.469E-02 0.390E-02 -.349E-02   -.818E-02 -.110E-01 0.226E-01
   -.651E+01 -.375E+01 0.136E+02   0.629E+01 0.363E+01 -.137E+02   -.178E-01 -.103E-01 0.177E-01   0.254E+00 0.139E+00 0.128E+00
   0.394E+00 0.212E+01 -.407E+00   -.406E+00 -.212E+01 0.371E+00   0.469E-02 0.390E-02 -.349E-02   0.639E-02 -.179E-02 0.390E-01
   0.131E-01 -.451E-02 0.296E+00   -.351E-01 0.202E-01 -.282E+00   0.381E-02 -.220E-02 -.304E-02   0.179E-01 -.136E-01 -.125E-01
[...]
   -.275E+00 0.161E+00 0.376E+00   0.263E+00 -.152E+00 -.361E+00   0.407E-02 -.235E-02 0.145E-02   0.719E-02 -.737E-02 -.175E-01
   0.493E+01 -.219E+00 0.507E+01   -.485E+01 0.225E+00 -.508E+01   0.946E-02 0.377E-02 0.374E-02   -.998E-01 -.166E-01 -.178E-02
   0.246E+00 -.970E+00 0.511E-01   -.241E+00 0.974E+00 -.506E-01   -.104E-02 -.267E-02 -.188E-03   -.458E-02 -.370E-03 -.912E-04
   -.253E+01 -.327E+00 -.509E+00   0.254E+01 0.302E+00 0.543E+00   -.552E-02 0.550E-02 0.163E-03   -.733E-02 0.209E-01 -.362E-01
   -.965E+00 0.267E+00 0.509E-01   0.964E+00 -.279E+00 -.506E-01   -.179E-02 0.223E-02 -.188E-03   0.354E-02 0.947E-02 0.443E-05
   -.392E-01 -.489E-02 -.116E+02   0.297E-11 0.862E-12 0.115E+02   0.105E-19 0.901E-17 0.520E-01   0.606E-01 0.725E-02 0.671E-01
   0.924E-02 0.117E+01 0.385E+00   -.567E-02 -.117E+01 -.374E+00   -.197E-02 -.973E-03 0.149E-02   -.104E-02 -.153E-02 -.129E-01
   0.255E+01 -.319E+00 -.523E+00   -.254E+01 0.302E+00 0.543E+00   0.552E-02 0.550E-02 0.163E-03   -.171E-01 0.946E-02 -.187E-01
   0.964E+00 0.270E+00 -.540E-01   -.964E+00 -.279E+00 0.506E-01   0.179E-02 0.223E-02 0.188E-03   -.226E-02 0.604E-02 0.217E-02
   -.154E+01 -.203E+01 0.496E+00   0.153E+01 0.205E+01 -.543E+00   0.200E-02 -.753E-02 -.163E-03   0.102E-01 -.184E-01 0.496E-01
   0.226E+01 0.439E+01 0.502E+01   -.223E+01 -.431E+01 -.508E+01   0.799E-02 0.631E-02 0.374E-02   -.370E-01 -.918E-01 0.577E-01
   0.155E+01 -.205E+01 0.530E+00   -.153E+01 0.205E+01 -.543E+00   -.200E-02 -.753E-02 -.163E-03   -.163E-01 0.104E-01 0.967E-02
   0.200E-02 0.393E-03 -.618E+00   0.221E-10 -.126E-10 0.611E+00   0.757E-20 0.192E-19 0.102E-03   -.169E-02 -.571E-03 0.786E-02
   -.623E+00 -.461E-02 -.156E-03   -.121E-10 0.812E-11 -.199E-13   -.141E-18 -.273E-19 0.199E-20   0.102E+01 0.798E-01 0.172E-04
   0.469E+00 0.798E-01 -.447E-02   0.675E-13 0.469E-12 -.212E-12   0.367E-14 0.168E-14 0.284E-16   -.128E+01 -.900E-01 0.409E-03

 POSITION                                       TOTAL-FORCE (eV/Angst)
      1.24464      0.71856      1.66757        -0.000607     -0.000541      0.000241
      4.97877      7.18661      1.66835        -0.000000     -0.000412      0.005522
      6.22347      0.71863      1.66801         0.000231     -0.000363      0.000718
      9.95754      7.18623      1.66801         0.000429     -0.000018      0.000718
     11.20224      0.71863      1.66752         0.000111      0.000064      0.000311
     -3.73409      9.34210      8.33818         0.000020      0.000011     -0.000105
      1.24470      9.34211      8.33795        -0.000199      0.000381     -0.000718
      2.48927      2.87433      8.33822        -0.000030     -0.000260     -0.000608
      6.22355      9.34229      8.33822         0.000210      0.000156     -0.000608
      7.46827      2.87433      8.33822         0.000030     -0.000260     -0.000608
     12.44693      2.87449      8.33844        -0.000000     -0.000128     -0.000311
     -1.24469      9.34210      1.66778        -0.000020      0.000011      0.000105
     -0.00007      2.87446      1.66753        -0.000651     -0.000376      0.000080
      4.97877      2.87455      1.66915        -0.000000      0.000662      0.002637
      3.73400      9.34229      1.66774        -0.000210      0.000156      0.000608
      8.71284      9.34211      1.66801         0.000199      0.000381      0.000718
      9.95761      2.87446      1.66753         0.000651     -0.000376      0.000080
     -4.97877     11.49798      8.33811        -0.000188      0.000108     -0.000304
     -0.00000     11.49798      8.33811         0.000188      0.000108     -0.000304
      1.24450      5.03035      8.33822        -0.000240      0.000104     -0.000608
      6.22378      5.03018      8.33760        -0.000357      0.000206     -0.005522
      4.97877     11.49806      8.33843         0.000000      0.000752     -0.000080
     11.20232      5.03035      8.33839         0.000772     -0.000255     -0.000241
     -1.24478      5.03035      1.66757        -0.000772     -0.000255      0.000241
     -2.48939     11.49799      1.66778        -0.000000     -0.000023      0.000105
      2.48936     11.49806      1.66757        -0.000165      0.000796      0.000241
      3.73376      5.03018      1.66835         0.000357      0.000206      0.005522
      7.46819     11.49806      1.66757         0.000165      0.000796      0.000241
      8.71304      5.03035      1.66774         0.000240      0.000104      0.000608
      0.00000      7.18623      8.33795        -0.000429     -0.000018     -0.000718
      1.24464      0.71856      8.33839        -0.000607     -0.000541     -0.000241
      4.97877      7.18661      8.33760        -0.000000     -0.000412     -0.005522
      6.22347      0.71863      8.33795         0.000231     -0.000363     -0.000718
      9.95754      7.18623      8.33795         0.000429     -0.000018     -0.000718
     -2.48939      7.18624      1.66785        -0.000000     -0.000217      0.000304
     11.20224      0.71863      8.33844         0.000111      0.000064     -0.000311
      3.73407      0.71863      1.66801        -0.000231     -0.000363      0.000718
      2.48944      7.18621      1.66915         0.000574     -0.000331      0.002637
      7.46811      7.18621      1.66915        -0.000574     -0.000331      0.002637
      8.71290      0.71856      1.66757         0.000607     -0.000541      0.000241
      2.48944      7.18621      8.33681         0.000574     -0.000331     -0.002637
     13.69162      0.71863      1.66752        -0.000111      0.000064      0.000311
     -1.24469      9.34210      8.33818        -0.000020      0.000011     -0.000105
     -0.00007      2.87446      8.33843        -0.000651     -0.000376     -0.000080
      4.97877      2.87455      8.33681         0.000000      0.000662     -0.002637
      3.73400      9.34229      8.33822        -0.000210      0.000156     -0.000608
      8.71284      9.34211      8.33795         0.000199      0.000381     -0.000718
      9.95761      2.87446      8.33843         0.000651     -0.000376     -0.000080
     -3.73409      9.34210      1.66778         0.000020      0.000011      0.000105
      1.24470      9.34211      1.66801        -0.000199      0.000381      0.000718
      2.48927      2.87433      1.66774        -0.000030     -0.000260      0.000608
      6.22355      9.34229      1.66774         0.000210      0.000156      0.000608
      7.46827      2.87433      1.66774         0.000030     -0.000260      0.000608
     12.44693      2.87449      1.66752        -0.000000     -0.000128      0.000311
     -1.24478      5.03035      8.33839        -0.000772     -0.000255     -0.000241
     -2.48939     11.49799      8.33818        -0.000000     -0.000023     -0.000105
      2.48936     11.49806      8.33839        -0.000165      0.000796     -0.000241
      3.73376      5.03018      8.33760         0.000357      0.000206     -0.005522
      7.46819     11.49806      8.33839         0.000165      0.000796     -0.000241
     -4.97877     11.49798      1.66785        -0.000188      0.000108      0.000304
[...]
      6.22344     12.21667      8.33840        -0.000376     -0.000669      0.000142
     -6.22354     12.21665      1.66754         0.000055     -0.000032      0.000380
      7.46820      5.74894      8.33725         0.000102      0.000064     -0.002679
     -1.24466     12.21665      1.66762        -0.000209      0.000688      0.000434
      0.00001      5.74886      1.66760         0.001144      0.000183      0.000679
     -1.24467      7.90481      1.66762         0.000700     -0.000163      0.000434
      4.97877      5.74899      1.67039         0.000000      0.000000      0.008322
      3.73410     12.21667      1.66756         0.000376     -0.000669     -0.000142
      9.95754      5.74886      1.66760        -0.001144      0.000183      0.000679
     -3.73410      7.90481      8.33834        -0.000700     -0.000163     -0.000434
      2.48928      1.43732      8.33835         0.000731      0.000899     -0.000679
      6.22344      7.90492      8.33725         0.000106      0.000056     -0.002679
      7.46827      1.43732      8.33835        -0.000731      0.000899     -0.000679
     12.44693      1.43725      8.33837        -0.000000      0.000000      0.001568
      4.97877      5.74899      5.00298         0.000000      0.000000     -0.000000
    total drift:                               -0.812936     -0.010211     -0.004060

  FREE ENERGIE OF THE ION-ELECTRON SYSTEM (eV)
  free  energy   TOTEN  =     -3067.29623109 eV

  energy  without entropy=    -3067.29623109  energy(sigma->0) =    -3067.29623109

 d Force = 0.1641608E-04[ 0.132E-04, 0.196E-04]  d Energy = 0.1087485E-03-0.923E-04
 d Force = 0.1844967E-01[ 0.184E-01, 0.185E-01]  d Ewald  = 0.1844967E-01-0.582E-10

 stress matrix after NEB project (eV)
     21.25215      0.00000      0.00000
      0.00000     21.25215      0.00000
      0.00000      0.00000      5.79654
  FORCES: max atom, RMS     0.008322    0.001531
  FORCE total and by dimension    0.025979    0.008322
  Stress total and by dimension   30.608942   21.252146
 Quasi-Newton relaxation of ions (Broydens 2nd method)
  g(Force)  = 0.195E-04   g(Stress)= 0.000E+00

 retain information from N=  3 steps
 eigenvalues of (default step * inverse Hessian matrix)
  average eigenvalue of G=   1.9876
 eigenvalue spectrum of G is  5.4791  0.4028  0.0808

 reached required accuracy - stopping structural energy minimisation
 writing wavefunctions

 total charge

[...]

 magnetization (x)

# of ion       s       p       d       tot
    1       -0.000  -0.000   0.000  -0.000
    2        0.000  -0.000   0.000   0.000
    3       -0.000  -0.000   0.000  -0.000
    4       -0.000  -0.000   0.000  -0.000
    5       -0.000  -0.000   0.000  -0.000
    6       -0.000  -0.000   0.000  -0.000
    7       -0.000  -0.000   0.000  -0.000
    8       -0.000  -0.000   0.000  -0.000
    9       -0.000  -0.000   0.000  -0.000
   10       -0.000  -0.000   0.000  -0.000
   11       -0.000  -0.000   0.000  -0.000
   12       -0.000  -0.000   0.000  -0.000
   13       -0.000  -0.000   0.000  -0.000
   14        0.000  -0.000   0.000  -0.000
   15       -0.000  -0.000   0.000  -0.000
   16       -0.000  -0.000   0.000  -0.000
   17       -0.000  -0.000   0.000  -0.000
   18       -0.000  -0.000   0.000  -0.000
   19       -0.000  -0.000   0.000  -0.000
   20       -0.000  -0.000   0.000  -0.000
   21        0.000  -0.000   0.000   0.000
   22       -0.000  -0.000   0.000  -0.000
   23       -0.000  -0.000   0.000  -0.000
   24       -0.000  -0.000   0.000  -0.000
   25       -0.000  -0.000   0.000  -0.000
   26       -0.000  -0.000   0.000  -0.000
   27        0.000  -0.000   0.000   0.000
   28       -0.000  -0.000   0.000  -0.000
   29       -0.000  -0.000   0.000  -0.000
   30       -0.000  -0.000   0.000  -0.000
   31       -0.000  -0.000   0.000  -0.000
   32        0.000  -0.000   0.000   0.000
   33       -0.000  -0.000   0.000  -0.000
   34       -0.000  -0.000   0.000  -0.000
   35       -0.000  -0.000   0.000  -0.000
   36       -0.000  -0.000   0.000  -0.000
   37       -0.000  -0.000   0.000  -0.000
   38        0.000  -0.000   0.000  -0.000
   39        0.000  -0.000   0.000  -0.000
   40       -0.000  -0.000   0.000  -0.000
   41        0.000  -0.000   0.000  -0.000
   42       -0.000  -0.000   0.000  -0.000
   43       -0.000  -0.000   0.000  -0.000
   44       -0.000  -0.000   0.000  -0.000
   45        0.000  -0.000   0.000  -0.000
   46       -0.000  -0.000   0.000  -0.000
   47       -0.000  -0.000   0.000  -0.000
   48       -0.000  -0.000   0.000  -0.000
   49       -0.000  -0.000   0.000  -0.000
   50       -0.000  -0.000   0.000  -0.000
   51       -0.000  -0.000   0.000  -0.000
   52       -0.000  -0.000   0.000  -0.000
   53       -0.000  -0.000   0.000  -0.000
   54       -0.000  -0.000   0.000  -0.000
   55       -0.000  -0.000   0.000  -0.000
   56       -0.000  -0.000   0.000  -0.000
   57       -0.000  -0.000   0.000  -0.000
   58        0.000  -0.000   0.000   0.000
   59       -0.000  -0.000   0.000  -0.000
   60       -0.000  -0.000   0.000  -0.000
[...]
  274        0.000   0.000   0.000   0.000
  275        0.000  -0.000   0.000  -0.000
  276        0.000  -0.000   0.000  -0.000
  277        0.000   0.000   0.000   0.000
  278        0.000   0.000   0.000   0.000
  279        0.000   0.000   0.000   0.000
  280       -0.000  -0.001   0.000  -0.001
  281        0.000   0.000   0.000   0.000
  282        0.000   0.000   0.000   0.000
  283        0.000   0.000   0.000   0.000
  284        0.000   0.000   0.000   0.000
  285        0.000  -0.000   0.000  -0.000
  286        0.000   0.000   0.000   0.000
  287        0.000   0.000   0.000   0.000
  288        0.000  -0.016   0.000  -0.016
tot         -0.000  -0.120   0.000  -0.120