 vasp.6.4.2 20Jul23 (build Nov 06 2023 14:18:49) gamma-only

 executed on             LinuxIFC date 2024.10.09  21:13:45

 INCAR:
   NCORE = 24
   LREAL = Auto
   ISTART = 0
   ICHARG = 2
   LORBIT = 11
   ENCUT = 500
   EDIFF = 1E-4
   NELM = 60
   NELMIN = 4
   IBRION = 1
   NSW = 900
   POTIM = 0.3
   ISIF = 2
   EDIFFG = -1E-2
   ADDGRID = .TRUE.
   ISMEAR = 0
   SIGMA = 0.01
   IVDW = 11
   VDW_S8 = 0.109
   VDW_SR = 1.129
   ISPIN = 2
   GGA = PE
   LHFCALC = .TRUE.
   AEXX = 0.32
   HFSCREEN = 0.2
   ALGO = Normal
   TIME = 0.4
   PRECFOCK = Fast

 POTCAR:    PAW_PBE N 08Apr2002
 POTCAR:    PAW_PBE B 06Sep2000
|           W    W    AA    RRRRR   N    N  II  N    N   GGGG   !!!           |
|           W    W   A  A   R    R  NN   N  II  NN   N  G    G  !!!           |
|           W    W  A    A  R    R  N N  N  II  N N  N  G       !!!           |
|           W WW W  AAAAAA  RRRRR   N  N N  II  N  N N  G  GGG   !            |
|           WW  WW  A    A  R   R   N   NN  II  N   NN  G    G                |
|           W    W  A    A  R    R  N    N  II  N    N   GGGG   !!!           |
|     You use a magnetic or noncollinear calculation, but did not specify     |
|     the initial magnetic moment with the MAGMOM tag. Note that a            |
|     default of 1 will be used for all atoms. This ferromagnetic setup       |
|     may break the symmetry of the crystal, in particular it may rule        |
|     out finding an antiferromagnetic solution. Thence, we recommend         |
|     setting the initial magnetic moment manually or verifying carefully     |
|     that this magnetic setup is desired.                                    |

   TITEL  = PAW_PBE N 08Apr2002
   POMASS =   14.001; ZVAL   =    5.000    mass and valenz
   ENMAX  =  400.000; ENMIN  =  300.000 eV

   TITEL  = PAW_PBE B 06Sep2000
   POMASS =   10.811; ZVAL   =    3.000    mass and valenz
   ENMAX  =  318.614; ENMIN  =  238.960 eV

 Optimization of the real space projectors (new method)

 maximal supplied QI-value         = 25.13
 optimisation between [QCUT,QGAM] = [ 11.31, 22.87] = [ 35.82,146.48] Ry
 Optimized for a Real-space Cutoff    1.27 Angstroem

   l    n(q)    QCUT    max X(q) W(low)/X(q) W(high)/X(q)  e(spline)
   0      9    11.310    79.467    0.75E-04    0.16E-03    0.36E-06
   0      9    11.310    66.151    0.74E-04    0.16E-03    0.36E-06
   1      8    11.310    17.416    0.35E-03    0.12E-03    0.95E-06
   1      8    11.310    12.382    0.37E-03    0.13E-03    0.98E-06
 Optimization of the real space projectors (new method)

 maximal supplied QI-value         = 22.11
 optimisation between [QCUT,QGAM] = [ 11.28, 22.77] = [ 35.61,145.23] Ry
 Optimized for a Real-space Cutoff    1.16 Angstroem

   l    n(q)    QCUT    max X(q) W(low)/X(q) W(high)/X(q)  e(spline)
   0      8    11.276    53.033    0.48E-03    0.56E-03    0.11E-06
   0      8    11.276    34.740    0.48E-03    0.55E-03    0.11E-06
   1      7    11.276    30.949    0.26E-03    0.19E-04    0.19E-06
   1      7    11.276    19.518    0.24E-03    0.14E-04    0.18E-06
  PAW_PBE N 08Apr2002                   :
  PAW_PBE B 06Sep2000                   :

 POSCAR: Species order:  N B
  positions in direct lattice
 exchange correlation table for  LEXCH =        8
   RHO(1)=    0.500       N(1)  =     2000
   RHO(2)=  100.500       N(2)  =     4000

 VTST: version 4.1, (05/19/21)

 CHAIN: initializing optimizer

 OPT: Using VASP QUASI-newton optimizer
 CHAIN: Read ICHAIN            0

 POSCAR: Species order:  N B
  positions in direct lattice

 ion  position               nearest neighbor table
   1  0.111  0.056  0.125- 252 1.44 216 1.44 275 1.44
   2  0.611  0.556  0.125- 254 1.44 217 1.44 280 1.44
   3  0.444  0.056  0.125- 218 1.44 255 1.44 277 1.44
   4  0.944  0.556  0.125- 219 1.44 250 1.44 282 1.44
   5  0.778  0.056  0.125- 257 1.44 220 1.44 281 1.44
   6  0.111  0.722  0.625- 258 1.44 283 1.44 221 1.44
   7  0.444  0.722  0.625- 256 1.44 222 1.44 261 1.44
   8  0.278  0.222  0.625- 260 1.44 284 1.44 223 1.44
   9  0.778  0.722  0.625- 262 1.44 285 1.44 224 1.44
  10  0.611  0.222  0.625- 263 1.44 286 1.44 225 1.44
  11  0.944  0.222  0.625- 287 1.44 226 1.44 259 1.44
  12  0.278  0.722  0.125- 265 1.44 279 1.44 227 1.44
  13  0.111  0.222  0.125- 266 1.44 216 1.44 228 1.44
  14  0.444  0.222  0.125- 218 1.44 229 1.44 268 1.44
  15  0.611  0.722  0.125- 267 1.44 217 1.44 230 1.44
  16  0.944  0.722  0.125- 219 1.44 231 1.44 264 1.44
  17  0.778  0.222  0.125- 269 1.44 220 1.44 232 1.44
  18  0.111  0.889  0.625- 271 1.44 221 1.44 233 1.44
  19  0.444  0.889  0.625- 222 1.44 234 1.44 272 1.44
  20  0.278  0.389  0.625- 273 1.44 223 1.44 235 1.44
  21  0.611  0.389  0.625- 276 1.44 225 1.44 236 1.44
  22  0.778  0.889  0.625- 274 1.44 224 1.44 237 1.44
  23  0.944  0.389  0.625- 226 1.44 238 1.44 270 1.44
  24  0.111  0.389  0.125- 278 1.44 228 1.44 239 1.44
  25  0.278  0.889  0.125- 277 1.44 227 1.44 240 1.44
  26  0.611  0.889  0.125- 281 1.44 230 1.44 241 1.44
  27  0.444  0.389  0.125- 229 1.44 242 1.44 280 1.44
  28  0.944  0.889  0.125- 231 1.44 243 1.44 275 1.44
  29  0.778  0.389  0.125- 282 1.44 232 1.44 244 1.44
  30  0.278  0.556  0.625- 256 1.44 245 1.44 235 1.44
  31  0.111  0.056  0.625- 284 1.44 246 1.44 233 1.44
  32  0.611  0.556  0.625- 285 1.44 247 1.44 236 1.44
  33  0.444  0.056  0.625- 248 1.44 286 1.44 234 1.44
  34  0.944  0.556  0.625- 249 1.44 283 1.44 238 1.44
  35  0.111  0.556  0.125- 279 1.44 250 1.44 239 1.44
  36  0.778  0.056  0.625- 287 1.44 251 1.44 237 1.44
  37  0.278  0.056  0.125- 218 1.44 252 1.44 240 1.44
  38  0.444  0.556  0.125- 253 1.44 217 1.44 242 1.44
  39  0.778  0.556  0.125- 219 1.44 254 1.44 244 1.44
  40  0.611  0.056  0.125- 220 1.44 255 1.44 241 1.44
  41  0.444  0.556  0.625- 256 1.44 247 1.44 273 1.44
  42  0.944  0.056  0.125- 257 1.44 216 1.44 243 1.44
  43  0.278  0.722  0.625- 222 1.44 245 1.44 258 1.44
  44  0.111  0.222  0.625- 223 1.44 246 1.44 259 1.44
  45  0.444  0.222  0.625- 248 1.44 260 1.44 225 1.44
  46  0.611  0.722  0.625- 224 1.44 247 1.44 261 1.44
  47  0.944  0.722  0.625- 249 1.44 262 1.44 221 1.44
  48  0.778  0.222  0.625- 226 1.44 251 1.44 263 1.44
  49  0.111  0.722  0.125- 227 1.44 250 1.44 264 1.44
  50  0.444  0.722  0.125- 253 1.44 265 1.44 230 1.44
  51  0.278  0.222  0.125- 229 1.44 252 1.44 266 1.44
  52  0.778  0.722  0.125- 231 1.44 254 1.44 267 1.44
  53  0.611  0.222  0.125- 232 1.44 255 1.44 268 1.44
  54  0.944  0.222  0.125- 257 1.44 269 1.44 228 1.44
  55  0.111  0.389  0.625- 235 1.44 259 1.44 270 1.44
  56  0.278  0.889  0.625- 234 1.44 258 1.44 271 1.44
  57  0.611  0.889  0.625- 237 1.44 261 1.44 272 1.44
  58  0.444  0.389  0.625- 260 1.44 273 1.44 236 1.44
  59  0.944  0.889  0.625- 262 1.44 274 1.44 233 1.44
  60  0.111  0.889  0.125- 240 1.44 264 1.44 275 1.44
[...]
 273  0.389  0.444  0.625-  20 1.44  58 1.44  41 1.44
 274  0.889  0.944  0.625-  22 1.44  59 1.44  72 1.44
 275  0.056  0.944  0.125-  60 1.44  28 1.44   1 1.44
 276  0.722  0.444  0.625-  21 1.44  61 1.44  70 1.44
 277  0.389  0.944  0.125-  25 1.44  62 1.44   3 1.44
 278  0.222  0.444  0.125-  24 1.44  63 1.44  64 1.44
 279  0.222  0.611  0.125-  35 1.44  12 1.44  64 1.44
 280  0.556  0.444  0.125-  65 1.44  27 1.44   2 1.44
 281  0.722  0.944  0.125-  26 1.44  66 1.44   5 1.44
 282  0.889  0.444  0.125-  29 1.44  67 1.44   4 1.44
 283  0.056  0.611  0.625-   6 1.44  68 1.44  34 1.44
 284  0.222  0.111  0.625-  31 1.44   8 1.44  69 1.44
 285  0.722  0.611  0.625-  32 1.44   9 1.44  70 1.44
 286  0.556  0.111  0.625-  10 1.44  71 1.44  33 1.44
 287  0.889  0.111  0.625-  36 1.44  11 1.44  72 1.44

  LATTYP: Found a hexagonal cell.
 ALAT       =    14.9363141462
 C/A-ratio  =     0.8932107448

  Lattice vectors:

 A1 = (  14.9363141462,   0.0000000000,   0.0000000000)
 A2 = (  -7.4681570731,  12.9352274895,  -0.0000000000)
 A3 = (   0.0000000000,   0.0000000000,  13.3412762838)

Analysis of symmetry for initial positions (statically):
 Subroutine PRICEL returns:
 Original cell was already a primitive cell.

 Routine SETGRP: Setting up the symmetry group for a
 hexagonal supercell.

 Subroutine GETGRP returns: Found 12 space group operations
 (whereof  1 operations were pure point group operations)
 out of a pool of 24 trial point group operations.

The static configuration has the point symmetry C_1 .
 The point group associated with its full space group is D_3h.

Analysis of symmetry for dynamics (positions and initial velocities):
 Subroutine PRICEL returns:
 Original cell was already a primitive cell.

[...]

The dynamic configuration has the point symmetry C_1 .
 The point group associated with its full space group is D_3h.

Analysis of structural, dynamic, and magnetic symmetry:
 Subroutine PRICEL returns:
 Original cell was already a primitive cell.

 Routine SETGRP: Setting up the symmetry group for a
 hexagonal supercell.

 Subroutine GETGRP returns: Found 12 space group operations
 (whereof  1 operations were pure point group operations)
 out of a pool of 24 trial point group operations.

The overall configuration has the point symmetry C_1 .
 The point group associated with its full space group is D_3h.

 Subroutine INISYM returns: Found 12 space group operations
 (whereof  1 operations are pure point group operations),
 and found     1 'primitive' translations

                                     Primitive cell

  volume of cell :    2577.5962

  direct lattice vectors                    reciprocal lattice vectors
    14.936314146  0.000000000  0.000000000     0.066950922  0.038654133 -0.000000000
    -7.468157073 12.935227490 -0.000000000     0.000000000  0.077308265 -0.000000000
     0.000000000  0.000000000 13.341276284     0.000000000  0.000000000  0.074955348

  length of vectors
    14.936314146 14.936314146 13.341276284     0.077308265  0.077308265  0.074955348

  position of ions in fractional coordinates (direct lattice)
     0.111111111  0.055555556  0.125000000
     0.611111111  0.555555556  0.125000000
     0.444444444  0.055555556  0.125000000
     0.944444444  0.555555556  0.125000000
     0.777777778  0.055555556  0.125000000
     0.111111111  0.722222222  0.625000000
     0.444444444  0.722222222  0.625000000
     0.277777778  0.222222222  0.625000000
     0.777777778  0.722222222  0.625000000
     0.611111111  0.222222222  0.625000000
     0.944444444  0.222222222  0.625000000
     0.277777778  0.722222222  0.125000000
     0.111111111  0.222222222  0.125000000
     0.444444444  0.222222222  0.125000000
     0.611111111  0.722222222  0.125000000
     0.944444444  0.722222222  0.125000000
     0.777777778  0.222222222  0.125000000
     0.111111111  0.888888889  0.625000000
     0.444444444  0.888888889  0.625000000
     0.277777778  0.388888889  0.625000000
     0.611111111  0.388888889  0.625000000
     0.777777778  0.888888889  0.625000000
     0.944444444  0.388888889  0.625000000
     0.111111111  0.388888889  0.125000000
     0.277777778  0.888888889  0.125000000
     0.611111111  0.888888889  0.125000000
     0.444444444  0.388888889  0.125000000
     0.944444444  0.888888889  0.125000000
     0.777777778  0.388888889  0.125000000
[...]
   -.217E+01 -.342E+01 0.214E+01   0.217E+01 0.342E+01 -.210E+01   -.256E-01 -.179E-01 -.522E-02   -.341E-03 -.739E-04 0.131E-02
   0.393E+01 0.706E+01 0.906E+01   -.396E+01 -.716E+01 -.920E+01   0.177E-01 0.931E-01 0.996E-02   -.646E-03 -.408E-03 0.241E-02
   0.217E+01 -.342E+01 0.214E+01   -.217E+01 0.342E+01 -.210E+01   0.256E-01 -.179E-01 -.522E-02   0.341E-03 -.737E-04 0.131E-02
   0.149E+01 0.639E+00 0.100E+01   -.150E+01 -.636E+00 -.102E+01   0.651E-02 -.145E-03 0.377E-02   0.211E-05 -.973E-05 0.165E-02
   -.149E+01 0.639E+00 -.101E+01   0.150E+01 -.636E+00 0.102E+01   -.651E-02 -.145E-03 -.377E-02   -.376E-05 -.995E-05 -.165E-02
   -.198E-04 -.111E-01 0.412E+00   0.246E-10 -.248E-10 -.418E+00   0.388E-18 0.564E-18 0.336E-02   0.488E-06 -.175E-03 0.917E-03
   -.208E-04 -.516E+01 -.327E+01   -.303E-10 0.516E+01 0.319E+01   -.760E-17 -.272E-01 -.138E-02   -.313E-06 0.415E-04 -.189E-02
   -.393E+01 0.706E+01 -.906E+01   0.396E+01 -.716E+01 0.920E+01   -.177E-01 0.931E-01 -.996E-02   0.642E-03 -.397E-03 -.242E-02
   0.442E+01 0.257E+01 -.315E+01   -.447E+01 -.258E+01 0.319E+01   0.236E-01 0.136E-01 -.138E-02   -.241E-03 0.576E-04 -.154E-02
   0.153E+01 -.941E+00 -.846E+00   -.152E+01 0.934E+00 0.838E+00   0.121E-01 -.390E-02 -.381E-02   -.474E-03 -.900E-04 -.994E-03
   -.393E+01 0.706E+01 0.906E+01   0.396E+01 -.716E+01 -.920E+01   -.177E-01 0.931E-01 0.996E-02   0.646E-03 -.408E-03 0.241E-02
   -.153E+01 -.941E+00 -.846E+00   0.152E+01 0.934E+00 0.838E+00   -.121E-01 -.390E-02 -.381E-02   0.474E-03 -.906E-04 -.994E-03
   -.128E+01 0.957E+00 0.100E+01   0.130E+01 -.983E+00 -.102E+01   -.313E-02 0.571E-02 0.377E-02   0.167E-03 -.171E-03 0.166E-02
   -.470E+01 -.268E+01 0.314E+01   0.473E+01 0.273E+01 -.311E+01   -.441E-01 -.255E-01 -.779E-02   0.301E-04 0.316E-03 0.937E-03
   0.419E+01 -.692E+01 0.934E+01   -.422E+01 0.701E+01 -.920E+01   0.717E-01 -.618E-01 0.996E-02   -.191E-03 0.112E-02 0.279E-02
   -.695E-04 0.537E+01 0.307E+01   0.155E-10 -.546E+01 -.311E+01   0.155E-16 0.509E-01 -.779E-02   -.115E-07 -.374E-03 0.622E-03
   0.128E+01 0.957E+00 0.100E+01   -.130E+01 -.983E+00 -.102E+01   0.313E-02 0.571E-02 0.377E-02   -.167E-03 -.171E-03 0.166E-02
   0.157E+01 -.836E+00 0.833E+00   -.157E+01 0.849E+00 -.838E+00   0.941E-02 -.851E-02 0.381E-02   -.316E-03 0.656E-03 0.952E-03
   -.692E-04 -.176E-01 -.679E+00   -.203E-10 -.571E-10 0.681E+00   -.192E-18 0.939E-19 -.209E-02   -.739E-06 -.266E-03 -.206E-02
   -.185E+01 0.353E+01 -.207E+01   0.187E+01 -.359E+01 0.210E+01   -.274E-02 0.311E-01 0.522E-02   0.292E-03 -.709E-04 -.983E-03
   -.419E+01 -.692E+01 -.934E+01   0.422E+01 0.701E+01 0.920E+01   -.717E-01 -.618E-01 -.996E-02   0.184E-03 0.111E-02 -.279E-02
   0.185E+01 0.353E+01 -.207E+01   -.187E+01 -.359E+01 0.210E+01   0.274E-02 0.311E-01 0.522E-02   -.291E-03 -.705E-04 -.983E-03
   0.470E+01 -.268E+01 -.314E+01   -.473E+01 0.273E+01 0.311E+01   0.441E-01 -.255E-01 0.779E-02   -.252E-04 0.313E-03 -.939E-03
   -.157E+01 -.836E+00 -.837E+00   0.157E+01 0.849E+00 0.838E+00   -.941E-02 -.851E-02 -.381E-02   0.315E-03 0.655E-03 -.952E-03
   -.400E+01 -.138E+00 0.209E+01   0.404E+01 0.173E+00 -.210E+01   -.283E-01 -.132E-01 -.522E-02   -.540E-04 0.110E-03 0.110E-02
   0.211E+00 -.164E+01 0.103E+01   -.200E+00 0.162E+01 -.102E+01   0.338E-02 -.557E-02 0.377E-02   0.169E-03 -.387E-03 0.181E-02
   -.412E-01 0.174E+01 0.819E+00   0.489E-01 -.178E+01 -.838E+00   0.266E-02 0.124E-01 0.381E-02   -.160E-03 -.941E-03 0.853E-03
   -.212E-04 0.126E+00 0.182E+02   0.945E-11 0.133E-10 -.181E+02   0.368E-18 -.708E-19 -.639E-01   -.186E-06 0.533E-03 0.121E-02
   -.169E+00 0.587E-01 0.826E+00   0.154E+00 -.891E-01 -.830E+00   -.639E-02 0.369E-02 0.332E-02   -.851E-04 -.422E-03 0.132E-02
   -.211E+00 -.164E+01 -.104E+01   0.200E+00 0.162E+01 0.102E+01   -.338E-02 -.557E-02 -.377E-02   -.170E-03 -.387E-03 -.182E-02
[...]
   -.330E+00 0.142E+00 0.310E+00   0.302E+00 -.174E+00 -.311E+00   -.127E-03 0.735E-04 0.127E-03   -.147E-04 -.259E-03 0.661E-03
   -.490E+00 -.103E+01 -.580E+00   0.459E+00 0.994E+00 0.574E+00   -.791E-03 -.732E-02 0.601E-03   -.194E-03 -.157E-03 -.866E-03
   0.341E+01 0.635E+00 0.246E+01   -.345E+01 -.606E+00 -.248E+01   0.284E-01 0.104E-01 0.319E-02   -.108E-04 0.164E-03 0.608E-03
   0.491E+00 -.103E+01 -.580E+00   -.459E+00 0.994E+00 0.574E+00   0.791E-03 -.732E-02 0.601E-03   0.194E-03 -.157E-03 -.866E-03
   -.341E+01 0.635E+00 -.247E+01   0.345E+01 -.606E+00 0.248E+01   -.284E-01 0.104E-01 -.319E-02   0.605E-05 0.165E-03 -.608E-03
   -.140E+01 0.799E+00 -.756E+00   0.144E+01 -.830E+00 0.764E+00   -.981E-02 0.566E-02 -.516E-03   0.110E-03 -.451E-04 -.853E-03
   0.340E+01 0.205E+01 -.994E+01   -.345E+01 -.199E+01 0.999E+01   0.637E-01 0.368E-01 0.961E-02   -.777E-04 0.260E-03 -.479E-03
   0.115E-03 0.682E+00 -.241E+00   -.137E-10 -.712E+00 0.244E+00   0.752E-18 0.257E-02 -.178E-03   0.303E-06 -.323E-03 -.537E-03
   0.108E+01 0.109E+00 -.571E+00   -.109E+01 -.996E-01 0.574E+00   0.674E-02 0.298E-02 0.601E-03   -.652E-05 0.301E-04 -.769E-03
   0.114E-03 0.232E+00 0.349E+00   -.279E-11 -.261E+00 -.353E+00   0.191E-18 0.187E-02 0.206E-03   0.974E-07 -.126E-03 0.111E-02
   -.124E+01 -.330E+01 0.251E+01   0.120E+01 0.329E+01 -.248E+01   -.515E-02 -.298E-01 0.319E-02   -.985E-04 0.316E-04 0.791E-03
   0.218E+01 0.264E+01 0.246E+01   -.225E+01 -.269E+01 -.248E+01   0.232E-01 0.194E-01 0.319E-02   -.114E-03 0.563E-04 0.544E-03
   0.170E+01 -.146E+01 0.101E+01   -.167E+01 0.147E+01 -.998E+00   0.703E-02 -.849E-02 -.303E-03   0.850E-04 0.963E-05 0.567E-03
   -.633E+00 -.349E+00 0.244E+00   0.616E+00 0.356E+00 -.244E+00   -.222E-02 -.128E-02 0.178E-03   0.468E-04 0.232E-04 0.588E-03
   0.296E-03 0.989E+01 -.331E-02   0.239E-12 -.215E-12 -.811E-13   -.262E-14 0.608E-14 0.174E-16   -.175E-05 -.263E-02 0.101E-03

 POSITION                                       TOTAL-FORCE (eV/Angst)
      1.24464      0.71868      1.66791         0.000198      0.000571      0.000573
      4.97864      7.18629      1.66952        -0.000994     -0.000945      0.003951
      6.22352      0.71868      1.66791        -0.000198      0.000571      0.000573
      9.95750      7.18619      1.66800        -0.000160     -0.000095     -0.000036
     11.20224      0.71862      1.66796         0.000000      0.000000     -0.000370
     -3.73408      9.34211      8.33804         0.000000      0.000000      0.000079
      1.24477      9.34213      8.33805         0.000395     -0.000457     -0.000573
      2.48928      2.87458      8.33644         0.000321      0.001333     -0.003951
      6.22339      9.34213      8.33805        -0.000395     -0.000457     -0.000573
      7.46825      2.87444      8.33791        -0.000369      0.000213     -0.000833
     12.44687      2.87447      8.33796         0.000495     -0.000116      0.000435
     -1.24463      9.34209      1.66800         0.000162     -0.000091     -0.000036
     -0.00009      2.87444      1.66805         0.000369      0.000213      0.000833
      4.97888      2.87458      1.66952        -0.000321      0.001333      0.003951
      3.73408      9.34222      1.66805        -0.000000     -0.000426      0.000833
      8.71279      9.34209      1.66800        -0.000162     -0.000091     -0.000036
      9.95760      2.87447      1.66800        -0.000495     -0.000116     -0.000435
     -4.97879     11.49804      8.33796        -0.000002      0.000186      0.000036
      0.00002     11.49799      8.33797         0.000417      0.000241      0.000182
      1.24471      5.03023      8.33644         0.001315     -0.000389     -0.003951
      6.22344      5.03023      8.33644        -0.001315     -0.000389     -0.003951
      4.97878     11.49804      8.33796        -0.000348     -0.000371      0.000435
     11.20224      5.03034      8.33797         0.000000     -0.000482      0.000182
     -1.24468      5.03029      1.66791         0.000594     -0.000114      0.000573
     -2.48937     11.49804      1.66800         0.000002      0.000186     -0.000036
      2.48938     11.49804      1.66800         0.000348     -0.000371     -0.000435
      3.73408      5.03037      1.66153        -0.000000      0.000000      0.003451
      7.46813     11.49799      1.66798        -0.000417      0.000241     -0.000182
      8.71283      5.03029      1.66791        -0.000594     -0.000114      0.000573
      0.00014      7.18615      8.33764         0.000612     -0.000353     -0.001474
      1.24464      0.71868      8.33805         0.000198      0.000571     -0.000573
      4.97864      7.18629      8.33644        -0.000994     -0.000945     -0.003951
      6.22352      0.71868      8.33805        -0.000198      0.000571     -0.000573
      9.95750      7.18619      8.33796        -0.000160     -0.000095      0.000036
     -2.48934      7.18619      1.66800         0.000160     -0.000095     -0.000036
     11.20224      0.71862      8.33799         0.000000      0.000000      0.000370
      3.73408      0.71879      1.66832         0.000000      0.000707      0.001474
      2.48952      7.18629      1.66952         0.000994     -0.000945      0.003951
      7.46801      7.18615      1.66832        -0.000612     -0.000353      0.001474
      8.71290      0.71859      1.66800        -0.000147      0.000487     -0.000435
      2.48952      7.18629      8.33644         0.000994     -0.000945     -0.003951
     13.69157      0.71859      1.66800         0.000147      0.000487     -0.000435
     -1.24463      9.34209      8.33796         0.000162     -0.000091      0.000036
     -0.00009      2.87444      8.33791         0.000369      0.000213     -0.000833
      4.97888      2.87458      8.33644        -0.000321      0.001333     -0.003951
      3.73408      9.34222      8.33791        -0.000000     -0.000426     -0.000833
      8.71279      9.34209      8.33796        -0.000162     -0.000091      0.000036
      9.95760      2.87447      8.33796        -0.000495     -0.000116      0.000435
     -3.73408      9.34211      1.66792         0.000000      0.000000     -0.000079
      1.24477      9.34213      1.66791         0.000395     -0.000457      0.000573
      2.48928      2.87458      1.66952         0.000321      0.001333      0.003951
      6.22339      9.34213      1.66791        -0.000395     -0.000457      0.000573
      7.46825      2.87444      1.66805        -0.000369      0.000213      0.000833
     12.44687      2.87447      1.66800         0.000495     -0.000116     -0.000435
     -1.24468      5.03029      8.33805         0.000594     -0.000114     -0.000573
     -2.48937     11.49804      8.33796         0.000002      0.000186      0.000036
      2.48938     11.49804      8.33796         0.000348     -0.000371      0.000435
      3.73408      5.03037      8.34443        -0.000000     -0.000000     -0.003451
      7.46813     11.49799      8.33797        -0.000417      0.000241      0.000182
     -4.97879     11.49804      1.66800        -0.000002      0.000186     -0.000036
[...]
      2.49110      5.74800      8.33385        -0.000602      0.000347     -0.004558
      6.22344     12.21662      8.33837         0.000312     -0.000180      0.000162
     -6.22349     12.21682      1.66760        -0.000084     -0.000353      0.000272
      7.46737      5.74861      8.33774         0.000981      0.000596     -0.001505
     -1.24467     12.21682      1.66760         0.000084     -0.000353      0.000272
      0.00078      5.74861      1.66822        -0.000981      0.000596      0.001505
     -1.24438      7.90468      1.66763        -0.000313      0.000181      0.000534
      4.97706      5.74800      1.67211         0.000602      0.000347      0.004558
      3.73408     12.21658      1.66759         0.000000      0.000513     -0.000189
      9.95736      5.74886      1.66760         0.000347      0.000104      0.000272
     -3.73408      7.90477      8.33835         0.000000      0.000288     -0.000001
      2.48945      1.43812      8.33774         0.000026     -0.001148     -0.001505
      6.22274      7.90437      8.33774         0.001007      0.000551     -0.001505
      7.46810      1.43741      8.33842         0.000092     -0.000667     -0.000045
     12.44695      1.43726      8.33837        -0.000444     -0.000256      0.000189
    total drift:                                0.000294      9.884129     -0.003205

  FREE ENERGIE OF THE ION-ELECTRON SYSTEM (eV)
  free  energy   TOTEN  =     -3060.96334827 eV

  energy  without entropy=    -3060.96334827  energy(sigma->0) =    -3060.96334827

 d Force = 0.6212152E-04[ 0.184E-04, 0.106E-03]  d Energy = 0.5102520E-04 0.111E-04
 d Force =-0.1295500E+00[-0.130E+00,-0.129E+00]  d Ewald  =-0.1295500E+00 0.260E-08

 stress matrix after NEB project (eV)
      4.21455      0.00000     -0.00000
      0.00000      4.21455      0.00000
      0.00000      0.00000      0.63026
  FORCES: max atom, RMS     0.005433    0.001994
  FORCE total and by dimension    0.033783    0.005433
  Stress total and by dimension    5.993501    4.214548
 Quasi-Newton relaxation of ions (Broydens 2nd method)
  g(Force)  = 0.330E-04   g(Stress)= 0.000E+00

 retain information from N=  7 steps
 eigenvalues of (default step * inverse Hessian matrix)
  average eigenvalue of G=   2.6498
 eigenvalue spectrum of G is  6.1863  6.1863  1.8283  1.8283  0.8827  0.8827  0.7539

 reached required accuracy - stopping structural energy minimisation
 writing wavefunctions

 total charge

[...]

 magnetization (x)

# of ion       s       p       d       tot
    1        0.000   0.000   0.000   0.000
    2        0.000   0.001   0.000   0.001
    3        0.000   0.000   0.000   0.000
    4        0.000   0.000   0.000   0.000
    5        0.000   0.000   0.000   0.000
    6        0.000   0.000   0.000   0.000
    7        0.000   0.000   0.000   0.000
    8        0.000   0.001   0.000   0.001
    9        0.000   0.000   0.000   0.000
   10        0.000   0.000   0.000   0.000
   11        0.000   0.000   0.000   0.000
   12        0.000   0.000   0.000   0.000
   13        0.000   0.000   0.000   0.000
   14        0.000   0.001   0.000   0.001
   15        0.000   0.000   0.000   0.000
   16        0.000   0.000   0.000   0.000
   17        0.000   0.000   0.000   0.000
   18        0.000   0.000   0.000   0.000
   19        0.000   0.000   0.000   0.000
   20        0.000   0.001   0.000   0.001
   21        0.000   0.001   0.000   0.001
   22        0.000   0.000   0.000   0.000
   23        0.000   0.000   0.000   0.000
   24        0.000   0.000   0.000   0.000
   25        0.000   0.000   0.000   0.000
   26        0.000   0.000   0.000   0.000
   27        0.000   0.002   0.000   0.002
   28        0.000   0.000   0.000   0.000
   29        0.000   0.000   0.000   0.000
   30        0.000   0.001   0.000   0.001
   31        0.000   0.000   0.000   0.000
   32        0.000   0.001   0.000   0.001
   33        0.000   0.000   0.000   0.000
   34        0.000   0.000   0.000   0.000
   35        0.000   0.000   0.000   0.000
   36        0.000   0.000   0.000   0.000
   37        0.000   0.001   0.000   0.001
   38        0.000   0.001   0.000   0.001
   39        0.000   0.001   0.000   0.001
   40        0.000   0.000   0.000   0.000
   41        0.000   0.001   0.000   0.001
   42        0.000   0.000   0.000   0.000
   43        0.000   0.000   0.000   0.000
   44        0.000   0.000   0.000   0.000
   45        0.000   0.001   0.000   0.001
   46        0.000   0.000   0.000   0.000
   47        0.000   0.000   0.000   0.000
   48        0.000   0.000   0.000   0.000
   49        0.000   0.000   0.000   0.000
   50        0.000   0.000   0.000   0.000
   51        0.000   0.001   0.000   0.001
   52        0.000   0.000   0.000   0.000
   53        0.000   0.000   0.000   0.000
   54        0.000   0.000   0.000   0.000
   55        0.000   0.000   0.000   0.000
   56        0.000   0.000   0.000   0.000
   57        0.000   0.000   0.000   0.000
   58        0.000   0.002   0.000   0.002
   59        0.000   0.000   0.000   0.000
   60        0.000   0.000   0.000   0.000
[...]
  273       -0.000  -0.000   0.000  -0.000
  274       -0.000   0.000   0.000   0.000
  275       -0.000  -0.000   0.000  -0.000
  276       -0.000  -0.000   0.000  -0.000
  277       -0.000  -0.000   0.000  -0.000
  278       -0.000  -0.000   0.000  -0.000
  279       -0.000  -0.000   0.000  -0.000
  280       -0.000  -0.000   0.000  -0.000
  281       -0.000   0.000   0.000   0.000
  282       -0.000  -0.000   0.000  -0.000
  283       -0.000  -0.000   0.000  -0.000
  284       -0.000  -0.000   0.000  -0.000
  285       -0.000  -0.000   0.000  -0.000
  286       -0.000  -0.000   0.000  -0.000
  287       -0.000   0.000   0.000   0.000
tot          0.162   2.085   0.000   2.246